     Program PWSCF v.5.1rc2 (svn rev. 11289) starts on 19Jan2018 at  4:29:27

     Current dimensions of program PWSCF are:
     Max number of different atomic species (ntypx) = 10
     Max number of k-points (npk) =  40000
     Max angular momentum in pseudopotentials (lmaxx) =  3
     Presently stress not available with electric field

     IMPORTANT: XC functional enforced from input :
     Exchange-correlation      = BEEF-VDW ( 1  4 27 13 2)
     Any further DFT definition will be discarded
     Please, verify this is what you really want

     Subspace diagonalization in iterative solution of the eigenvalue problem:
     a serial algorithm will be used

     bravais-lattice index     =            0
     lattice parameter (alat)  =       1.8897  a.u.
     unit-cell volume          =    4306.9643 (a.u.)^3
     number of atoms/cell      =           13
     number of atomic types    =            2
     number of electrons       =       184.00
     number of Kohn-Sham states=          102
     kinetic-energy cutoff     =      36.7493  Ry
     charge density cutoff     =     367.4932  Ry
     convergence threshold     =      1.0E-05
     mixing beta               =       0.3000
     number of iterations used =           10  plain     mixing
     Exchange-correlation      = BEEF-VDW ( 1  4 27 13 2)
     nstep                     =           50

     celldm(1)=   1.889726  celldm(2)=   0.000000  celldm(3)=   0.000000
     celldm(4)=   0.000000  celldm(5)=   0.000000  celldm(6)=   0.000000

     crystal axes: (cart. coord. in units of alat)
               a(1) = (   5.486772   0.000000   0.000000 )
               a(2) = (   2.743386   4.751684   0.000000 )
               a(3) = (   0.000000   0.000000  24.479931 )

     reciprocal axes: (cart. coord. in units 2 pi/alat)
               b(1) = (  0.182257 -0.105226  0.000000 )
               b(2) = (  0.000000  0.210452  0.000000 )
               b(3) = (  0.000000  0.000000  0.040850 )

     PseudoPot. # 1 for Re read from file:
     /afs/slac.stanford.edu/u/if/mamunm/psp/gbrv1.5pbe/Re.UPF
     MD5 check sum: 85f993410f3e006da9d71c142b4ad953
     Pseudo is Ultrasoft + core correction, Zval = 15.0
     Generated by new atomic code, or converted to UPF format
     Using radial grid of  981 points,  8 beta functions with:
                l(1) =   0
                l(2) =   0
                l(3) =   1
                l(4) =   1
                l(5) =   2
                l(6) =   2
                l(7) =   3
                l(8) =   3
     Q(r) pseudized with  8 coefficients,  rinner =    1.150   1.150   1.150
                                                       1.150   1.150   1.150
                                                       1.150

     PseudoPot. # 2 for C  read from file:
     /afs/slac.stanford.edu/u/if/mamunm/psp/gbrv1.5pbe/C.UPF
     MD5 check sum: d1aef80898a10debaa0f26306b886e00
     Pseudo is Ultrasoft + core correction, Zval =  4.0
     Generated by new atomic code, or converted to UPF format
     Using radial grid of  721 points,  4 beta functions with:
                l(1) =   0
                l(2) =   0
                l(3) =   1
                l(4) =   1
     Q(r) pseudized with  8 coefficients,  rinner =    1.100   1.100   1.100

     vdW kernel table read from file vdW_kernel_table
     MD5 check sum: 095c7af220d748ca6e76c0b4c6cfb241

     atomic species   valence    mass     pseudopotential
        Re1           15.00   186.20700     Re( 1.00)
        C1             4.00    12.01100     C ( 1.00)

     No symmetry found

   Cartesian axes

     site n.     atom                  positions (alat units)
         1           Re1 tau(   1) = (   1.3716930   0.7919474  10.0000000  )
         2           Re1 tau(   2) = (   4.1150791   0.7919474  10.0000000  )
         3           Re1 tau(   3) = (   2.7433861   3.1677894  10.0000000  )
         4           Re1 tau(   4) = (   5.4867722   3.1677894  10.0000000  )
         5           Re1 tau(   5) = (   5.4867722   1.5838947  12.2399654  )
         6           Re1 tau(   6) = (   2.7433861   1.5838947  12.2399654  )
         7           Re1 tau(   7) = (   6.8584652   3.9597368  12.2399654  )
         8           Re1 tau(   8) = (   4.1150791   3.9597368  12.2399654  )
         9           Re1 tau(   9) = (   0.0000000   0.0000000  14.4799307  )
        10           Re1 tau(  10) = (   2.7433861   0.0000000  14.4799307  )
        11           Re1 tau(  11) = (   1.3716930   2.3758421  14.4799307  )
        12           Re1 tau(  12) = (   4.1150791   2.3758421  14.4799307  )
        13           C1  tau(  13) = (   1.3716930   0.7919474  16.7499307  )

     number of k points=    20  Fermi-Dirac smearing, width (Ry)=  0.0110
                       cart. coord. in units 2pi/alat
        k(    1) = (   0.0000000   0.0000000   0.0000000), wk =   0.0555556
        k(    2) = (   0.0000000   0.0350753   0.0000000), wk =   0.1111111
        k(    3) = (   0.0000000   0.0701506   0.0000000), wk =   0.1111111
        k(    4) = (   0.0000000  -0.1052259   0.0000000), wk =   0.0555556
        k(    5) = (   0.0303761  -0.0175376   0.0000000), wk =   0.1111111
        k(    6) = (   0.0303761   0.0175376   0.0000000), wk =   0.1111111
        k(    7) = (   0.0303761   0.0526129   0.0000000), wk =   0.1111111
        k(    8) = (   0.0303761  -0.1227635   0.0000000), wk =   0.1111111
        k(    9) = (   0.0303761  -0.0876882   0.0000000), wk =   0.1111111
        k(   10) = (   0.0303761  -0.0526129   0.0000000), wk =   0.1111111
        k(   11) = (   0.0607522  -0.0350753   0.0000000), wk =   0.1111111
        k(   12) = (   0.0607522   0.0000000   0.0000000), wk =   0.1111111
        k(   13) = (   0.0607522   0.0350753   0.0000000), wk =   0.1111111
        k(   14) = (   0.0607522  -0.1403011   0.0000000), wk =   0.1111111
        k(   15) = (   0.0607522  -0.1052259   0.0000000), wk =   0.1111111
        k(   16) = (   0.0607522  -0.0701506   0.0000000), wk =   0.1111111
        k(   17) = (  -0.0911283   0.0526129   0.0000000), wk =   0.0555556
        k(   18) = (  -0.0911283   0.0876882   0.0000000), wk =   0.1111111
        k(   19) = (  -0.0911283   0.1227635   0.0000000), wk =   0.1111111
        k(   20) = (  -0.0911283  -0.0526129   0.0000000), wk =   0.0555556

     Largest allocated arrays     est. size (Mb)     dimensions
     Largest temporary arrays     est. size (Mb)     dimensions

     Initial potential from superposition of free atoms
     Check: negative starting charge=   -1.539578

     starting charge  177.99942, renormalised to  184.00000

     negative rho (up, down):  1.591E+00 0.000E+00

     *
     * You are using vdW-DF for exchange-correlation in this calculation.
     * Please cite the following three references that made this development
     * possible:
     *
     *   M. Dion, H. Rydberg, E. Schroder, D. C. Langreth, and
     *   B. I. Lundqvist, Phys. Rev. Lett. 92, 246401 (2004).
     *
     *   T. Thonhauser, V. R. Cooper, S. Li, A. Puzder, P. Hyldgaard, and
     *   D. C. Langreth, Phys. Rev. B 76, 125112 (2007).
     *
     *   G. Roman-Perez and J. M. Soler, Phys. Rev. Lett. 103, 096102 (2009).
     *
     *
     * If you are using vdW-DF2, please also cite:
     *
     *   K. Lee, E. D. Murray, L. Kong, B. I. Lundqvist, and
     *   D. C. Langreth, Phys. Rev. B 82, 081101(R) (2010).
     *
     *
     * If you are calculating the stress with vdW-DF, please also cite:
     *
     *   R. Sabatini, E. Kucukbenli, B. Kolb, T. Thonhauser, and
     *   S. de Gironcoli, J. Phys.: Condens. Matter 24, 424209 (2012).
     *

     Carrying out vdW-DF run using the following parameters:

     Nqs =      20    Nr_points =    1024   r_max =   100.000
     q_mesh =
               0.00001000     0.04494208     0.09755937     0.15916263
               0.23128650     0.31572767     0.41458969     0.53033537
               0.66584808     0.82450364     1.01025438     1.22772762
               1.48234092     1.78043706     2.12944203     2.53805004
               3.01644009     3.57652955     4.23227104     5.00000000

     Gradients computed in reciprocal space

     Adding external electric field

     Computed dipole along edir(3) :
        Dipole               -1.1489 Ry au,         -2.9201 Debye
        Dipole field         -0.0034 Ry au

        Potential amp.        0.3024 Ry
        Total length         45.1039 bohr

     Starting wfc are  160 randomized atomic wfcs

     Self-consistent Calculation

     iteration #  1     ecut=    36.75 Ry     beta=0.30
     Davidson diagonalization with overlap
     ethr =  1.00E-02,  avg # of iterations =  2.0

[...]

     total energy              =   -2299.56714280 Ry
     Harris-Foulkes estimate   =   -2317.55307347 Ry
     estimated scf accuracy    <      37.46314196 Ry

[...]

     End of self-consistent calculation

          k = 0.0000 0.0000 0.0000 ( 16091 PWs)   bands (ev):

   -77.9314 -77.8489 -77.8367 -77.8332 -77.8328 -77.7886 -77.7756 -77.7638
   -77.7628 -77.7241 -77.7161 -77.7159 -40.1863 -40.1750 -40.1749 -40.0675
   -40.0067 -40.0009 -40.0007 -39.8782 -39.8781 -39.8758 -39.6407 -39.5332
   -39.5099 -39.5048 -39.5046 -39.4960 -39.4957 -39.4303 -39.4302 -39.4111
   -39.3139 -39.2910 -39.2907 -39.2123 -39.2090 -39.2086 -39.2062 -39.1779
   -39.1778 -39.1388 -39.1387 -39.1339 -38.9994 -38.9994 -38.9371 -38.9371
    -6.6470  -5.8068  -4.4155  -3.9607  -3.6036  -3.6035  -3.5888  -3.3056
    -3.3055  -3.2906  -2.6157  -2.6156  -2.6033  -2.4378  -2.4378  -2.4279
    -0.8936  -0.8935  -0.8609   0.1807   0.1807   0.1853   0.3783   0.5110
     0.8523   0.8523   1.2561   1.2562   1.3039   1.3039   1.3332   1.3533
     1.3562   1.3563   1.5931   1.5931   1.9447   2.4413   2.4500   2.4500
     3.1790   3.1791   3.1829   3.3709   3.4678   3.4679   3.9229   3.9229
     4.0764   4.4880   4.4880   4.5631   4.5632   4.7169

[...]

          k =-0.0911 0.0526 0.0000 ( 16164 PWs)   bands (ev):

[...]

     the Fermi energy is     2.6883 ev

!    total energy              =   -2317.06747447 Ry
     Harris-Foulkes estimate   =   -2317.06748896 Ry
     estimated scf accuracy    <       0.00000169 Ry

     The total energy is the sum of the following terms:

     one-electron contribution =  -18621.32148101 Ry
     hartree contribution      =    9295.76107039 Ry
     xc contribution           =    -652.51204306 Ry
     ewald contribution        =    7661.07800215 Ry
     electric field correction =       0.00021231 Ry
     smearing contrib. (-TS)   =      -0.07323525 Ry

     convergence has been achieved in  20 iterations

 BEEF-vdW xc energy contributions
           1 :   -580.085358241668
           2 :    539.280089418614
           3 :   -466.048774888952
           4 :    374.299775852495
           5 :   -279.362805787658
           6 :    194.108730452994
           7 :   -126.339879127570
           8 :    78.0553158020153
           9 :   -46.5472332590729
          10 :    26.6494460528189
          11 :   -13.1519501351976
          12 :    2.50040548146683
          13 :    6.64611571583589
          14 :   -13.8983135235063
          15 :    18.1955356559884
          16 :   -18.8801356449297
[...]
     ethr =  4.40E-07,  avg # of iterations =  5.5

[...]

     Total force =     0.099193     Total SCF correction =     0.022016
     SCF correction compared to forces is large: reduce conv_thr to get better values

[...]

   This run was terminated on:   6:31: 0  19Jan2018

[...]

     Program PWSCF v.5.1rc2 (svn rev. 11289) starts on 19Jan2018 at  6:31: 5

[...]

     Program PWSCF v.5.1rc2 (svn rev. 11289) starts on 19Jan2018 at  6:44:33

[...]

     Program PWSCF v.5.1rc2 (svn rev. 11289) starts on 19Jan2018 at  6:59: 0

     Current dimensions of program PWSCF are:
     Max number of different atomic species (ntypx) = 10
     Max number of k-points (npk) =  40000
     Max angular momentum in pseudopotentials (lmaxx) =  3
     Presently stress not available with electric field

     IMPORTANT: XC functional enforced from input :
     Exchange-correlation      = BEEF-VDW ( 1  4 27 13 2)
     Any further DFT definition will be discarded
     Please, verify this is what you really want

     Subspace diagonalization in iterative solution of the eigenvalue problem:
     a serial algorithm will be used

     bravais-lattice index     =            0
     lattice parameter (alat)  =       1.8897  a.u.
     unit-cell volume          =    4306.9643 (a.u.)^3
     number of atoms/cell      =           13
     number of atomic types    =            2
     number of electrons       =       184.00
     number of Kohn-Sham states=          102
     kinetic-energy cutoff     =      36.7493  Ry
     charge density cutoff     =     367.4932  Ry
     convergence threshold     =      1.0E-05
     mixing beta               =       0.3000
     number of iterations used =           10  plain     mixing
     Exchange-correlation      = BEEF-VDW ( 1  4 27 13 2)
     nstep                     =           50

     celldm(1)=   1.889726  celldm(2)=   0.000000  celldm(3)=   0.000000
     celldm(4)=   0.000000  celldm(5)=   0.000000  celldm(6)=   0.000000

     crystal axes: (cart. coord. in units of alat)
               a(1) = (   5.486772   0.000000   0.000000 )
               a(2) = (   2.743386   4.751684   0.000000 )
               a(3) = (   0.000000   0.000000  24.479931 )

     reciprocal axes: (cart. coord. in units 2 pi/alat)
               b(1) = (  0.182257 -0.105226  0.000000 )
               b(2) = (  0.000000  0.210452  0.000000 )
               b(3) = (  0.000000  0.000000  0.040850 )

     PseudoPot. # 1 for Re read from file:
     /afs/slac.stanford.edu/u/if/mamunm/psp/gbrv1.5pbe/Re.UPF
     MD5 check sum: 85f993410f3e006da9d71c142b4ad953
     Pseudo is Ultrasoft + core correction, Zval = 15.0
     Generated by new atomic code, or converted to UPF format
     Using radial grid of  981 points,  8 beta functions with:
                l(1) =   0
                l(2) =   0
                l(3) =   1
                l(4) =   1
                l(5) =   2
                l(6) =   2
                l(7) =   3
                l(8) =   3
     Q(r) pseudized with  8 coefficients,  rinner =    1.150   1.150   1.150
                                                       1.150   1.150   1.150
                                                       1.150

     PseudoPot. # 2 for C  read from file:
     /afs/slac.stanford.edu/u/if/mamunm/psp/gbrv1.5pbe/C.UPF
     MD5 check sum: d1aef80898a10debaa0f26306b886e00
     Pseudo is Ultrasoft + core correction, Zval =  4.0
     Generated by new atomic code, or converted to UPF format
     Using radial grid of  721 points,  4 beta functions with:
                l(1) =   0
                l(2) =   0
                l(3) =   1
                l(4) =   1
     Q(r) pseudized with  8 coefficients,  rinner =    1.100   1.100   1.100

     vdW kernel table read from file vdW_kernel_table
     MD5 check sum: 095c7af220d748ca6e76c0b4c6cfb241

     atomic species   valence    mass     pseudopotential
        Re1           15.00   186.20700     Re( 1.00)
        C1             4.00    12.01100     C ( 1.00)

     No symmetry found

   Cartesian axes

     site n.     atom                  positions (alat units)
         1           Re1 tau(   1) = (   1.3716930   0.7919474  10.0000000  )
         2           Re1 tau(   2) = (   4.1150791   0.7919474  10.0000000  )
         3           Re1 tau(   3) = (   2.7433861   3.1677894  10.0000000  )
         4           Re1 tau(   4) = (   5.4867722   3.1677894  10.0000000  )
         5           Re1 tau(   5) = (   5.4867722   1.5838947  12.2399654  )
         6           Re1 tau(   6) = (   2.7433861   1.5838947  12.2399654  )
         7           Re1 tau(   7) = (   6.8584652   3.9597368  12.2399654  )
         8           Re1 tau(   8) = (   4.1150791   3.9597368  12.2399654  )
         9           Re1 tau(   9) = (   8.2062763   4.7376580  14.5360521  )
        10           Re1 tau(  10) = (   5.5105815   4.7376748  14.5360260  )
        11           Re1 tau(  11) = (   6.8584481   2.4041007  14.5361075  )
        12           Re1 tau(  12) = (   4.1150285   2.3762161  14.3342013  )
        13           C1  tau(  13) = (   1.3716487   0.7917506  15.7026807  )

     number of k points=    20  Fermi-Dirac smearing, width (Ry)=  0.0110
                       cart. coord. in units 2pi/alat
        k(    1) = (   0.0000000   0.0000000   0.0000000), wk =   0.0555556
        k(    2) = (   0.0000000   0.0350753   0.0000000), wk =   0.1111111
        k(    3) = (   0.0000000   0.0701506   0.0000000), wk =   0.1111111
        k(    4) = (   0.0000000  -0.1052259   0.0000000), wk =   0.0555556
        k(    5) = (   0.0303761  -0.0175376   0.0000000), wk =   0.1111111
        k(    6) = (   0.0303761   0.0175376   0.0000000), wk =   0.1111111
        k(    7) = (   0.0303761   0.0526129   0.0000000), wk =   0.1111111
        k(    8) = (   0.0303761  -0.1227635   0.0000000), wk =   0.1111111
        k(    9) = (   0.0303761  -0.0876882   0.0000000), wk =   0.1111111
        k(   10) = (   0.0303761  -0.0526129   0.0000000), wk =   0.1111111
        k(   11) = (   0.0607522  -0.0350753   0.0000000), wk =   0.1111111
        k(   12) = (   0.0607522   0.0000000   0.0000000), wk =   0.1111111
        k(   13) = (   0.0607522   0.0350753   0.0000000), wk =   0.1111111
        k(   14) = (   0.0607522  -0.1403011   0.0000000), wk =   0.1111111
        k(   15) = (   0.0607522  -0.1052259   0.0000000), wk =   0.1111111
        k(   16) = (   0.0607522  -0.0701506   0.0000000), wk =   0.1111111
        k(   17) = (  -0.0911283   0.0526129   0.0000000), wk =   0.0555556
        k(   18) = (  -0.0911283   0.0876882   0.0000000), wk =   0.1111111
        k(   19) = (  -0.0911283   0.1227635   0.0000000), wk =   0.1111111
        k(   20) = (  -0.0911283  -0.0526129   0.0000000), wk =   0.0555556

     Largest allocated arrays     est. size (Mb)     dimensions
     Largest temporary arrays     est. size (Mb)     dimensions

     Initial potential from superposition of free atoms
     Check: negative starting charge=   -1.538990

     starting charge  177.99942, renormalised to  184.00000

[...]

     *
     * You are using vdW-DF for exchange-correlation in this calculation.
     * Please cite the following three references that made this development
     * possible:
     *
     *   M. Dion, H. Rydberg, E. Schroder, D. C. Langreth, and
     *   B. I. Lundqvist, Phys. Rev. Lett. 92, 246401 (2004).
     *
     *   T. Thonhauser, V. R. Cooper, S. Li, A. Puzder, P. Hyldgaard, and
     *   D. C. Langreth, Phys. Rev. B 76, 125112 (2007).
     *
     *   G. Roman-Perez and J. M. Soler, Phys. Rev. Lett. 103, 096102 (2009).
     *
     *
     * If you are using vdW-DF2, please also cite:
     *
     *   K. Lee, E. D. Murray, L. Kong, B. I. Lundqvist, and
     *   D. C. Langreth, Phys. Rev. B 82, 081101(R) (2010).
     *
     *
     * If you are calculating the stress with vdW-DF, please also cite:
     *
     *   R. Sabatini, E. Kucukbenli, B. Kolb, T. Thonhauser, and
     *   S. de Gironcoli, J. Phys.: Condens. Matter 24, 424209 (2012).
     *

     Carrying out vdW-DF run using the following parameters:

     Nqs =      20    Nr_points =    1024   r_max =   100.000
     q_mesh =
               0.00001000     0.04494208     0.09755937     0.15916263
               0.23128650     0.31572767     0.41458969     0.53033537
               0.66584808     0.82450364     1.01025438     1.22772762
               1.48234092     1.78043706     2.12944203     2.53805004
               3.01644009     3.57652955     4.23227104     5.00000000

     Gradients computed in reciprocal space

[...]

     Starting wfc are  160 randomized atomic wfcs

     Self-consistent Calculation

[...]

     total energy              =   -2317.39029907 Ry
     Harris-Foulkes estimate   =   -2317.39030291 Ry
     estimated scf accuracy    <       0.00004088 Ry

     iteration # 19     ecut=    36.75 Ry     beta=0.30
     Davidson diagonalization with overlap
     ethr =  2.22E-08,  avg # of iterations =  1.4

[...]

     negative rho (up, down):  1.624E+00 0.000E+00

     Adding external electric field

     Computed dipole along edir(3) :
        Dipole               -0.1054 Ry au,         -0.2678 Debye
        Dipole field         -0.0003 Ry au

        Potential amp.        0.0277 Ry
        Total length         45.1039 bohr

     End of self-consistent calculation

[...]

          k = 0.0608-0.0702 0.0000 ( 16218 PWs)   bands (ev):

[...]

          k =-0.0911-0.0526 0.0000 ( 16164 PWs)   bands (ev):

   -77.6993 -77.6851 -77.6583 -77.6454 -77.6387 -77.6369 -77.6210 -77.5519
   -77.5249 -77.4828 -77.4593 -77.4464 -39.8507 -39.8165 -39.8005 -39.7263
   -39.7099 -39.7028 -39.5954 -39.5920 -39.5460 -39.5039 -39.4941 -39.4703
   -39.3998 -39.3716 -39.3471 -39.2874 -39.2669 -39.2570 -39.2398 -39.2269
   -39.1998 -39.1950 -39.1514 -39.1387 -39.1139 -39.1113 -39.1080 -39.1054
   -39.0171 -39.0163 -39.0020 -38.9874 -38.9509 -38.9183 -38.8046 -38.7773
    -8.2402  -4.3816  -4.2072  -2.9982  -2.5908  -2.3644  -2.2574  -2.2250
    -2.1456  -2.0943  -2.0248  -1.6007  -1.4299  -1.0761  -1.0662  -1.0297
    -0.9386  -0.8368  -0.5991  -0.5111  -0.3373  -0.2924  -0.2131  -0.0389
     0.0333   0.1918   0.4385   0.7000   0.7996   0.8284   1.0050   1.0393
     1.0548   1.1529   1.3149   1.4472   1.4953   1.5409   1.7746   1.9438
     2.0309   2.5162   2.6065   2.8794   2.9206   2.9459   3.1044   3.1872
     3.4773   3.4792   3.6391   3.8400   3.9930   4.0444

     the Fermi energy is     2.9223 ev

!    total energy              =   -2317.39029294 Ry
     Harris-Foulkes estimate   =   -2317.39029055 Ry
     estimated scf accuracy    <       0.00000805 Ry

     The total energy is the sum of the following terms:

     one-electron contribution =  -18860.01791561 Ry
     hartree contribution      =    9416.05118834 Ry
     xc contribution           =    -653.21359043 Ry
     ewald contribution        =    7779.85355988 Ry
     electric field correction =       0.00003240 Ry
     smearing contrib. (-TS)   =      -0.06356751 Ry

     convergence has been achieved in  19 iterations

 BEEF-vdW xc energy contributions
           1 :   -580.780274460497
           2 :    540.153877639027
           3 :   -467.138778634180
           4 :    375.489969653836
           5 :   -280.460834247558
           6 :    194.933298078157
           7 :   -126.789040537942
           8 :    78.1377169594973
           9 :   -46.3677719000034
          10 :    26.3564675169150
          11 :   -12.8706079096445
          12 :    2.28693968092625
          13 :    6.80758033592917
          14 :   -14.0650025716392
          15 :    18.4241144792725
          16 :   -19.1909888844125
          17 :    16.6955134349737
          18 :   -12.3185110150587
          19 :    7.96891115917890
          20 :   -5.31547658815612
          21 :    5.14635300878513
          22 :   -7.13504017576429
          23 :    10.0851359791939
          24 :   -12.5147380839394
          25 :    13.3058251984451
          26 :   -12.1384863078799
          27 :    9.54131889587461
          28 :   -6.57173746409853
          29 :    4.30107446529678
          30 :   -3.35188529756863
          31 :   -48.3752005049923
          32 :   -35.9574154182096

     Forces acting on atoms (Ry/au):

     negative rho (up, down):  1.624E+00 0.000E+00
     atom    1 type  1   force =    -0.00001899    0.00000962    0.01942216
     atom    2 type  1   force =    -0.00000509   -0.00292211    0.02366935
     atom    3 type  1   force =    -0.00255634    0.00147308    0.02367801
     atom    4 type  1   force =     0.00256513    0.00148229    0.02369026
     atom    5 type  1   force =     0.00976618   -0.00562074   -0.00522004
     atom    6 type  1   force =    -0.00977730   -0.00564238   -0.00523921
     atom    7 type  1   force =     0.00000838   -0.00000079   -0.06819212
     atom    8 type  1   force =     0.00000700    0.01131604   -0.00519572
     atom    9 type  1   force =    -0.00050831   -0.00003161   -0.00182960
     atom   10 type  1   force =     0.00050428   -0.00004567   -0.00181573
     atom   11 type  1   force =    -0.00000690    0.00003202   -0.00181012
     atom   12 type  1   force =     0.00001657   -0.00023545   -0.00080041
     atom   13 type  2   force =     0.00000539    0.00018569   -0.00035682

     Total force =     0.084917     Total SCF correction =     0.020954
     SCF correction compared to forces is large: reduce conv_thr to get better values

     entering subroutine stress ...

     negative rho (up, down):  1.624E+00 0.000E+00
          total   stress  (Ry/bohr**3)                   (kbar)     P=  -14.38
  -0.00008492   0.00000001   0.00000001        -12.49      0.00      0.00
   0.00000001  -0.00008494   0.00000002          0.00    -12.50      0.00
   0.00000001   0.00000002  -0.00012332          0.00      0.00    -18.14

 !ASE

     Writing output data file calc.save

     General routines

     Parallel routines

   This run was terminated on:   7:13:27  19Jan2018

   JOB DONE.
Job  /afs/slac/g/suncat/bin/suncat-tsmpirun -x LD_LIBRARY_PATH -wdir /scratch/qe891277_Z4uXh pw.x -in pw.inp

TID   HOST_NAME   COMMAND_LINE            STATUS            TERMINATION_TIME
00000 suncat0217 pw.x -in pw.inp   Done                     01/19/2018 07:13:27
00001 suncat0217 pw.x -in pw.inp   Done                     01/19/2018 07:13:27
00002 suncat0217 pw.x -in pw.inp   Done                     01/19/2018 07:13:27
00003 suncat0217 pw.x -in pw.inp   Done                     01/19/2018 07:13:27
00004 suncat0217 pw.x -in pw.inp   Done                     01/19/2018 07:13:27
00005 suncat0217 pw.x -in pw.inp   Done                     01/19/2018 07:13:27
00006 suncat0217 pw.x -in pw.inp   Done                     01/19/2018 07:13:27
00007 suncat0217 pw.x -in pw.inp   Done                     01/19/2018 07:13:27
00008 suncat0216 pw.x -in pw.inp   Done                     01/19/2018 07:13:27
00009 suncat0216 pw.x -in pw.inp   Done                     01/19/2018 07:13:27
00010 suncat0216 pw.x -in pw.inp   Done                     01/19/2018 07:13:27
00011 suncat0216 pw.x -in pw.inp   Done                     01/19/2018 07:13:27
00012 suncat0216 pw.x -in pw.inp   Done                     01/19/2018 07:13:27
00013 suncat0216 pw.x -in pw.inp   Done                     01/19/2018 07:13:27
00014 suncat0216 pw.x -in pw.inp   Done                     01/19/2018 07:13:27
00015 suncat0216 pw.x -in pw.inp   Done                     01/19/2018 07:13:27
00016 suncat0215 pw.x -in pw.inp   Done                     01/19/2018 07:13:27
00017 suncat0215 pw.x -in pw.inp   Done                     01/19/2018 07:13:27
00018 suncat0215 pw.x -in pw.inp   Done                     01/19/2018 07:13:27
00019 suncat0215 pw.x -in pw.inp   Done                     01/19/2018 07:13:27
00020 suncat0215 pw.x -in pw.inp   Done                     01/19/2018 07:13:27
00021 suncat0215 pw.x -in pw.inp   Done                     01/19/2018 07:13:27
00022 suncat0215 pw.x -in pw.inp   Done                     01/19/2018 07:13:27
00023 suncat0215 pw.x -in pw.inp   Done                     01/19/2018 07:13:27
00024 suncat0213 pw.x -in pw.inp   Done                     01/19/2018 07:13:27
00025 suncat0213 pw.x -in pw.inp   Done                     01/19/2018 07:13:27
00026 suncat0213 pw.x -in pw.inp   Done                     01/19/2018 07:13:27
00027 suncat0213 pw.x -in pw.inp   Done                     01/19/2018 07:13:27
00028 suncat0213 pw.x -in pw.inp   Done                     01/19/2018 07:13:27
00029 suncat0213 pw.x -in pw.inp   Done                     01/19/2018 07:13:27
00030 suncat0213 pw.x -in pw.inp   Done                     01/19/2018 07:13:27
00031 suncat0213 pw.x -in pw.inp   Done                     01/19/2018 07:13:27