     Program PWSCF v.5.1rc2 (svn rev. 11289) starts on 24Apr2018 at 18:48:40

     Current dimensions of program PWSCF are:
     Max number of different atomic species (ntypx) = 10
     Max number of k-points (npk) =  40000
     Max angular momentum in pseudopotentials (lmaxx) =  3
     Presently stress not available with electric field

     IMPORTANT: XC functional enforced from input :
     Exchange-correlation      = BEEF-VDW ( 1  4 27 13 2)
     Any further DFT definition will be discarded
     Please, verify this is what you really want

     Subspace diagonalization in iterative solution of the eigenvalue problem:
     a serial algorithm will be used

     bravais-lattice index     =            0
     lattice parameter (alat)  =       1.8897  a.u.
     unit-cell volume          =    7725.1200 (a.u.)^3
     number of atoms/cell      =           14
     number of atomic types    =            3
     number of electrons       =       137.00
     number of Kohn-Sham states=           78
     kinetic-energy cutoff     =      36.7493  Ry
     charge density cutoff     =     367.4932  Ry
     convergence threshold     =      1.0E-05
     mixing beta               =       0.3000
     number of iterations used =           10  plain     mixing
     Exchange-correlation      = BEEF-VDW ( 1  4 27 13 2)
     nstep                     =           50

     celldm(1)=   1.889726  celldm(2)=   0.000000  celldm(3)=   0.000000
     celldm(4)=   0.000000  celldm(5)=   0.000000  celldm(6)=   0.000000

     crystal axes: (cart. coord. in units of alat)
               a(1) = (   7.152277   0.000000   0.000000 )
               a(2) = (   3.576139   6.194054   0.000000 )
               a(3) = (   0.000000   0.000000  25.839810 )

     reciprocal axes: (cart. coord. in units 2 pi/alat)
               b(1) = (  0.139816 -0.080723  0.000000 )
               b(2) = (  0.000000  0.161445  0.000000 )
               b(3) = (  0.000000  0.000000  0.038700 )

     PseudoPot. # 1 for Y  read from file:
     /u/if/mamunm/psp/gbrv1.5pbe/Y.UPF
     MD5 check sum: d034151ed7554c50b6e82763ed42c788
     Pseudo is Ultrasoft + core correction, Zval = 11.0
     Generated by new atomic code, or converted to UPF format
     Using radial grid of  885 points,  6 beta functions with:
                l(1) =   0
                l(2) =   0
                l(3) =   1
                l(4) =   1
                l(5) =   2
                l(6) =   2
     Q(r) pseudized with  8 coefficients,  rinner =    1.200   1.200   1.200
                                                       1.200   1.200

     PseudoPot. # 2 for C  read from file:
     /u/if/mamunm/psp/gbrv1.5pbe/C.UPF
     MD5 check sum: d1aef80898a10debaa0f26306b886e00
     Pseudo is Ultrasoft + core correction, Zval =  4.0
     Generated by new atomic code, or converted to UPF format
     Using radial grid of  721 points,  4 beta functions with:
                l(1) =   0
                l(2) =   0
                l(3) =   1
                l(4) =   1
     Q(r) pseudized with  8 coefficients,  rinner =    1.100   1.100   1.100

     PseudoPot. # 3 for H  read from file:
     /u/if/mamunm/psp/gbrv1.5pbe/H.UPF
     MD5 check sum: 761ae9a214b05c3daf00ab9f6b793d6f
     Pseudo is Ultrasoft, Zval =  1.0
     Generated by new atomic code, or converted to UPF format
     Using radial grid of  615 points,  2 beta functions with:
                l(1) =   0
                l(2) =   0
     Q(r) pseudized with  8 coefficients,  rinner =    0.700

     vdW kernel table read from file vdW_kernel_table
     MD5 check sum: 095c7af220d748ca6e76c0b4c6cfb241

     atomic species   valence    mass     pseudopotential
        Y1            11.00    88.90584     Y ( 1.00)
        C1             4.00    12.01100     C ( 1.00)
        H1             1.00     1.00800     H ( 1.00)

     No symmetry found

   Cartesian axes

     site n.     atom                  positions (alat units)
         1           Y1  tau(   1) = (   1.7880693   1.0323423  10.0000000  )
         2           Y1  tau(   2) = (   5.3642080   1.0323423  10.0000000  )
         3           Y1  tau(   3) = (   3.5761386   4.1293692  10.0000000  )
         4           Y1  tau(   4) = (   7.1522773   4.1293692  10.0000000  )
         5           Y1  tau(   5) = (   7.1522773   2.0646846  12.9199050  )
         6           Y1  tau(   6) = (   3.5761386   2.0646846  12.9199050  )
         7           Y1  tau(   7) = (   8.9403466   5.1617115  12.9199050  )
         8           Y1  tau(   8) = (   5.3642080   5.1617115  12.9199050  )
         9           Y1  tau(   9) = (   0.0000000   0.0000000  15.8398100  )
        10           Y1  tau(  10) = (   3.5761386   0.0000000  15.8398100  )
        11           Y1  tau(  11) = (   1.7880693   3.0970269  15.8398100  )
        12           Y1  tau(  12) = (   5.3642080   3.0970269  15.8398100  )
        13           C1  tau(  13) = (   0.0000000   0.0000000  18.1008100  )
        14           H1  tau(  14) = (   0.0000000   0.0000000  19.2008100  )

     number of k points=    20  Fermi-Dirac smearing, width (Ry)=  0.0110
                       cart. coord. in units 2pi/alat
        k(    1) = (   0.0000000   0.0000000   0.0000000), wk =   0.0555556
        k(    2) = (   0.0000000   0.0269075   0.0000000), wk =   0.1111111
        k(    3) = (   0.0000000   0.0538151   0.0000000), wk =   0.1111111
        k(    4) = (   0.0000000  -0.0807226   0.0000000), wk =   0.0555556
        k(    5) = (   0.0233026  -0.0134538   0.0000000), wk =   0.1111111
        k(    6) = (   0.0233026   0.0134538   0.0000000), wk =   0.1111111
        k(    7) = (   0.0233026   0.0403613   0.0000000), wk =   0.1111111
        k(    8) = (   0.0233026  -0.0941763   0.0000000), wk =   0.1111111
        k(    9) = (   0.0233026  -0.0672688   0.0000000), wk =   0.1111111
        k(   10) = (   0.0233026  -0.0403613   0.0000000), wk =   0.1111111
        k(   11) = (   0.0466052  -0.0269075   0.0000000), wk =   0.1111111
        k(   12) = (   0.0466052   0.0000000   0.0000000), wk =   0.1111111
        k(   13) = (   0.0466052   0.0269075   0.0000000), wk =   0.1111111
        k(   14) = (   0.0466052  -0.1076301   0.0000000), wk =   0.1111111
        k(   15) = (   0.0466052  -0.0807226   0.0000000), wk =   0.1111111
        k(   16) = (   0.0466052  -0.0538151   0.0000000), wk =   0.1111111
        k(   17) = (  -0.0699078   0.0403613   0.0000000), wk =   0.0555556
        k(   18) = (  -0.0699078   0.0672688   0.0000000), wk =   0.1111111
        k(   19) = (  -0.0699078   0.0941763   0.0000000), wk =   0.1111111
        k(   20) = (  -0.0699078  -0.0403613   0.0000000), wk =   0.0555556

     Largest allocated arrays     est. size (Mb)     dimensions
     Largest temporary arrays     est. size (Mb)     dimensions

     Initial potential from superposition of free atoms
     Check: negative starting charge=   -0.000494

     starting charge  136.94632, renormalised to  137.00000

     negative rho (up, down):  4.943E-04 0.000E+00

     *
     * You are using vdW-DF for exchange-correlation in this calculation.
     * Please cite the following three references that made this development
     * possible:
     *
     *   M. Dion, H. Rydberg, E. Schroder, D. C. Langreth, and
     *   B. I. Lundqvist, Phys. Rev. Lett. 92, 246401 (2004).
     *
     *   T. Thonhauser, V. R. Cooper, S. Li, A. Puzder, P. Hyldgaard, and
     *   D. C. Langreth, Phys. Rev. B 76, 125112 (2007).
     *
     *   G. Roman-Perez and J. M. Soler, Phys. Rev. Lett. 103, 096102 (2009).
     *
     *
     * If you are using vdW-DF2, please also cite:
     *
     *   K. Lee, E. D. Murray, L. Kong, B. I. Lundqvist, and
     *   D. C. Langreth, Phys. Rev. B 82, 081101(R) (2010).
     *
     *
     * If you are calculating the stress with vdW-DF, please also cite:
     *
     *   R. Sabatini, E. Kucukbenli, B. Kolb, T. Thonhauser, and
     *   S. de Gironcoli, J. Phys.: Condens. Matter 24, 424209 (2012).
     *

     Carrying out vdW-DF run using the following parameters:

     Nqs =      20    Nr_points =    1024   r_max =   100.000
     q_mesh =
               0.00001000     0.04494208     0.09755937     0.15916263
               0.23128650     0.31572767     0.41458969     0.53033537
               0.66584808     0.82450364     1.01025438     1.22772762
               1.48234092     1.78043706     2.12944203     2.53805004
               3.01644009     3.57652955     4.23227104     5.00000000

     Gradients computed in reciprocal space

     Adding external electric field

     Computed dipole along edir(3) :
        Dipole               -0.0195 Ry au,         -0.0496 Debye
        Dipole field         -0.0000 Ry au

        Potential amp.        0.0030 Ry
        Total length         47.6094 bohr

     Starting wfc are  161 randomized atomic wfcs

     Self-consistent Calculation

     iteration #  1     ecut=    36.75 Ry     beta=0.30
     Davidson diagonalization with overlap
     ethr =  1.00E-02,  avg # of iterations =  2.0

[...]

     total energy              =   -1134.37353730 Ry
     Harris-Foulkes estimate   =   -1137.42945394 Ry
     estimated scf accuracy    <       6.69975546 Ry

[...]

     End of self-consistent calculation

          k = 0.0000 0.0000 0.0000 ( 28997 PWs)   bands (ev):

   -42.7478 -42.7161 -42.7154 -42.6511 -42.6102 -42.6091 -42.6049 -42.1045
   -42.0654 -42.0648 -42.0503 -41.4885 -22.8308 -22.7884 -22.7583 -22.7578
   -22.7538 -22.7381 -22.7377 -22.7317 -22.7311 -22.6786 -22.6117 -22.6107
   -22.6067 -22.5285 -22.4526 -22.4521 -22.4337 -22.4300 -22.4296 -22.3321
   -22.3321 -22.2500 -22.2190 -22.2187 -22.0313 -21.9964 -21.9959 -21.9805
   -21.9252 -21.9249 -21.9217 -21.8245 -21.8244 -21.5218 -21.5217 -21.3480
    -9.2032  -3.6030  -2.7936  -2.2494  -1.5674  -0.9040  -0.9039  -0.8617
    -0.7828  -0.7828  -0.7660  -0.4461  -0.4461  -0.3958   0.0003   0.0003
     0.0451   0.2075   0.2076   0.4326   0.7802   0.7802   0.8876   1.3078
     1.3668   1.4097   1.4098   1.5119   1.7468   1.9008

[...]

          k =-0.0699 0.0404 0.0000 ( 29048 PWs)   bands (ev):

[...]

     the Fermi energy is     0.7004 ev

!    total energy              =   -1136.89038571 Ry
     Harris-Foulkes estimate   =   -1136.89040238 Ry
     estimated scf accuracy    <       0.00000728 Ry

     The total energy is the sum of the following terms:

     one-electron contribution =   -5445.62416976 Ry
     hartree contribution      =    2715.61767246 Ry
     xc contribution           =    -343.08128839 Ry
     ewald contribution        =    1936.32252803 Ry
     electric field correction =       0.00029387 Ry
     smearing contrib. (-TS)   =      -0.12542193 Ry

     convergence has been achieved in  17 iterations

 BEEF-vdW xc energy contributions
           1 :   -299.132337078975
           2 :    268.547318257186
           3 :   -215.943788187415
           4 :    154.277453242525
           5 :   -95.5516033024019
           6 :    47.2886132125577
           7 :   -12.0248899908032
           8 :   -10.9280430998579
           9 :    23.2448125110707
          10 :   -26.3492248582218
          11 :    21.5367186117753
          12 :   -10.8029342418276
          13 :   -2.64631277968584
          14 :    14.8425026688166
          15 :   -22.3139728829227
          16 :    23.3703867122088
          17 :   -18.5846180835081
          18 :    10.2035328893421
          19 :  -0.949072881801044
          20 :   -7.02076141254634
          21 :    12.5059560977803
          22 :   -15.0815327342857
          23 :    14.7550901862174
          24 :   -11.8249129497117
          25 :    6.97028443348631
          26 :   -1.33383339951422
          27 :   -3.65862137205193
          28 :    6.76129490705750
          29 :   -7.40680786406898
          30 :    5.91250810985883
          31 :   -28.7435030107623
          32 :   -19.6575498718424

     Forces acting on atoms (Ry/au):

     negative rho (up, down):  1.546E-04 0.000E+00
     atom    1 type  1   force =    -0.00052345   -0.00022055    0.00516932
     atom    2 type  1   force =     0.00053067   -0.00007384    0.00517936
     atom    3 type  1   force =     0.00012513    0.00044023    0.00499388
     atom    4 type  1   force =    -0.00012438   -0.00016424    0.00575622
     atom    5 type  1   force =    -0.00018517    0.00816733   -0.00377554
     atom    6 type  1   force =     0.00016741   -0.00036445    0.00429559
     atom    7 type  1   force =    -0.00745040   -0.00374312   -0.00359275
     atom    8 type  1   force =     0.00746312   -0.00394981   -0.00349938
     atom    9 type  1   force =     0.00005279    0.00013909    0.02332838
     atom   10 type  1   force =    -0.00007363   -0.00002192    0.00665228
     atom   11 type  1   force =    -0.00015002   -0.00013580    0.00679021
     atom   12 type  1   force =     0.00015799   -0.00005746    0.00666552
     atom   13 type  2   force =     0.00000483   -0.00000596   -0.05789768
     atom   14 type  3   force =     0.00000510   -0.00000950   -0.00006540

     Total force =     0.063492     Total SCF correction =     0.002938

     entering subroutine stress ...

     negative rho (up, down):  1.546E-04 0.000E+00
          total   stress  (Ry/bohr**3)                   (kbar)     P=   -5.22
  -0.00002363  -0.00000000  -0.00000000         -3.48     -0.00     -0.00
  -0.00000000  -0.00002364   0.00000000         -0.00     -3.48      0.00
  -0.00000000   0.00000000  -0.00005916         -0.00      0.00     -8.70

     BFGS Geometry Optimization

     number of scf cycles    =   1
     number of bfgs steps    =   0

     energy   new            =   -1136.8903857147 Ry

     new trust radius        =       0.0578976827 bohr
     new conv_thr            =       0.0000099958 Ry

ATOMIC_POSITIONS (crystal)
Y1       0.166666667   0.166666667   0.386999750    0   0   0
Y1       0.666666667   0.166666667   0.386999750    0   0   0
Y1       0.166666667   0.666666667   0.386999750    0   0   0
Y1       0.666666667   0.666666667   0.386999750    0   0   0
Y1       0.833333333   0.333333333   0.500000000    0   0   0
Y1       0.333333333   0.333333333   0.500000000    0   0   0
Y1       0.833333333   0.833333333   0.500000000    0   0   0
Y1       0.333333333   0.833333333   0.500000000    0   0   0
Y1      -0.000002036   0.000011883   0.613477995
Y1       0.499995488  -0.000001872   0.613136483
Y1      -0.000005298   0.499988398   0.613139307
Y1       0.500014144   0.499995091   0.613136754
C1       0.000000612  -0.000000509   0.699315198
H1       0.000000784  -0.000000812   0.743069526

     Writing output data file calc.save
     Check: negative starting charge=   -0.000494
     NEW-OLD atomic charge density approx. for the potential
     Check: negative starting charge=   -0.000493

[...]

     energy   old            =   -1136.8903857147 Ry
     energy   new            =   -1136.8927765621 Ry

     CASE: energy  _new < energy  _old

[...]

     Total force =     0.005425     Total SCF correction =     0.000562
     SCF correction compared to forces is large: reduce conv_thr to get better values

[...]

     Threshold (ethr) on eigenvalues was too large:
     Diagonalizing with lowered threshold

     Davidson diagonalization with overlap
     ethr =  4.25E-08,  avg # of iterations =  4.8

[...]

     WARNING: bfgs curvature condition failed, Theta= 0.959
     new trust radius        =       0.0092319166 bohr
     new conv_thr            =       0.0000001000 Ry

[...]

     Total force =     0.002801     Total SCF correction =     0.000197

[...]

     number of scf cycles    =  17
     number of bfgs steps    =  16

     energy   old            =   -1136.9115035982 Ry
     energy   new            =   -1136.9115548771 Ry

     CASE: energy  _new < energy  _old

     new trust radius        =       0.0037034475 bohr
     new conv_thr            =       0.0000001000 Ry

ATOMIC_POSITIONS (crystal)
Y1       0.166666667   0.166666667   0.386999750    0   0   0
Y1       0.666666667   0.166666667   0.386999750    0   0   0
Y1       0.166666667   0.666666667   0.386999750    0   0   0
Y1       0.666666667   0.666666667   0.386999750    0   0   0
Y1       0.833333333   0.333333333   0.500000000    0   0   0
Y1       0.333333333   0.333333333   0.500000000    0   0   0
Y1       0.833333333   0.833333333   0.500000000    0   0   0
Y1       0.333333333   0.833333333   0.500000000    0   0   0
Y1       0.000011010  -0.000067528   0.601322467
Y1       0.500635957  -0.001285781   0.617252008
Y1      -0.001241791   0.500575843   0.617255738
Y1       0.500640943   0.500566545   0.617251800
C1      -0.000004286   0.000091388   0.683715831
H1      -0.000008154   0.000086720   0.726332236

     Writing output data file calc.save
     Check: negative starting charge=   -0.000529
     NEW-OLD atomic charge density approx. for the potential
     Check: negative starting charge=   -0.000529

[...]

     Self-consistent Calculation

[...]

     Threshold (ethr) on eigenvalues was too large:
     Diagonalizing with lowered threshold

     Davidson diagonalization with overlap
     ethr =  2.76E-08,  avg # of iterations =  3.0

[...]

     total energy              =   -1136.91156056 Ry
     Harris-Foulkes estimate   =   -1136.91156045 Ry
     estimated scf accuracy    <       0.00000026 Ry

     iteration #  7     ecut=    36.75 Ry     beta=0.30
     Davidson diagonalization with overlap
     ethr =  1.91E-10,  avg # of iterations =  5.7

[...]

     negative rho (up, down):  1.531E-04 0.000E+00

     Adding external electric field

     Computed dipole along edir(3) :
        Dipole               -0.2238 Ry au,         -0.5689 Debye
        Dipole field         -0.0004 Ry au

        Potential amp.        0.0347 Ry
        Total length         47.6094 bohr

     End of self-consistent calculation

[...]

          k = 0.0466-0.0538 0.0000 ( 29098 PWs)   bands (ev):

[...]

          k =-0.0699-0.0404 0.0000 ( 29048 PWs)   bands (ev):

   -42.6826 -42.6721 -42.6617 -42.4616 -42.4572 -42.4389 -42.4357 -41.9659
   -41.9169 -41.9040 -41.8949 -40.9728 -22.6983 -22.6816 -22.6792 -22.6642
   -22.5774 -22.5704 -22.5414 -22.5270 -22.5100 -22.5031 -22.4750 -22.4731
   -22.4372 -22.4357 -22.3887 -22.3806 -22.3777 -22.3454 -22.3447 -22.2155
   -22.2080 -22.0254 -22.0125 -21.9186 -21.8940 -21.8801 -21.8716 -21.8603
   -21.8498 -21.8294 -21.8223 -21.7283 -21.7166 -21.0461 -21.0323 -20.9766
    -8.9709  -2.5965  -2.2065  -1.9860  -1.4184  -1.1371  -0.5486  -0.4967
    -0.4893  -0.2368  -0.1145  -0.0242   0.0075   0.2869   0.6136   0.6255
     0.6546   0.6882   0.7927   0.7997   0.8714   0.9326   0.9946   1.0111
     1.0986   1.2003   1.2279   1.3708   1.4199   1.4208

     the Fermi energy is     0.8694 ev

!    total energy              =   -1136.91156053 Ry
     Harris-Foulkes estimate   =   -1136.91156148 Ry
     estimated scf accuracy    <       0.00000008 Ry

     The total energy is the sum of the following terms:

     one-electron contribution =   -5486.85131452 Ry
     hartree contribution      =    2736.92143563 Ry
     xc contribution           =    -343.16066920 Ry
     ewald contribution        =    1956.30175240 Ry
     electric field correction =       0.00008148 Ry
     smearing contrib. (-TS)   =      -0.12284632 Ry

     convergence has been achieved in   7 iterations

 BEEF-vdW xc energy contributions
           1 :   -299.211108407480
           2 :    268.650985395992
           3 :   -216.075993973480
           4 :    154.420053288081
           5 :   -95.6723773821053
           6 :    47.3551592426484
           7 :   -12.0257641408760
           8 :   -10.9738733962711
           9 :    23.3005603690149
          10 :   -26.3826095543923
          11 :    21.5345657162908
          12 :   -10.7730220862823
          13 :   -2.68189293228716
          14 :    14.8603466616224
          15 :   -22.3050193187182
          16 :    23.3456350507989
          17 :   -18.5644335566983
          18 :    10.2021044940818
          19 :  -0.967750025867076
          20 :   -6.98933028536999
          21 :    12.4704844643447
          22 :   -15.0489810600678
          23 :    14.7305635249207
          24 :   -11.8115095684826
          25 :    6.96977547762106
          26 :   -1.34797979244740
          27 :   -3.62893192796173
          28 :    6.71913334357646
          29 :   -7.35996004657250
          30 :    5.86914394891414
          31 :   -28.7498696811318
          32 :   -19.6703358118446

     Forces acting on atoms (Ry/au):

     negative rho (up, down):  1.531E-04 0.000E+00
     atom    1 type  1   force =     0.00027898    0.00015984    0.00582770
     atom    2 type  1   force =    -0.00027833    0.00015807    0.00582767
     atom    3 type  1   force =    -0.00000127   -0.00031968    0.00583041
     atom    4 type  1   force =     0.00000184    0.00000333    0.00843011
     atom    5 type  1   force =     0.00000002    0.01789977   -0.01329025
     atom    6 type  1   force =    -0.00000170   -0.00000269    0.01426924
     atom    7 type  1   force =    -0.01552198   -0.00896182   -0.01329777
     atom    8 type  1   force =     0.01551573   -0.00895809   -0.01329881
     atom    9 type  1   force =     0.00001570    0.00001958    0.00029195
     atom   10 type  1   force =    -0.00002375    0.00048932   -0.00003838
     atom   11 type  1   force =     0.00040119   -0.00027958   -0.00003895
     atom   12 type  1   force =    -0.00039948   -0.00025102   -0.00002978
     atom   13 type  2   force =     0.00000442    0.00002591    0.00055843
     atom   14 type  3   force =     0.00000863    0.00001707   -0.00104158

     Total force =     0.001480     Total SCF correction =     0.001028
     SCF correction compared to forces is large: reduce conv_thr to get better values

     entering subroutine stress ...

     negative rho (up, down):  1.531E-04 0.000E+00
          total   stress  (Ry/bohr**3)                   (kbar)     P=   -4.47
  -0.00003531   0.00000000   0.00000001         -5.19      0.00      0.00
   0.00000000  -0.00003532   0.00000003          0.00     -5.20      0.00
   0.00000001   0.00000003  -0.00002049          0.00      0.00     -3.01

     bfgs converged in  18 scf cycles and  17 bfgs steps
     (criteria: energy <  1.0E+00, force <  1.9E-03)

     End of BFGS Geometry Optimization

     Final energy   =   -1136.9115605258 Ry
Begin final coordinates

ATOMIC_POSITIONS (crystal)
Y1       0.166666667   0.166666667   0.386999750    0   0   0
Y1       0.666666667   0.166666667   0.386999750    0   0   0
Y1       0.166666667   0.666666667   0.386999750    0   0   0
Y1       0.666666667   0.666666667   0.386999750    0   0   0
Y1       0.833333333   0.333333333   0.500000000    0   0   0
Y1       0.333333333   0.333333333   0.500000000    0   0   0
Y1       0.833333333   0.833333333   0.500000000    0   0   0
Y1       0.333333333   0.833333333   0.500000000    0   0   0
Y1       0.000011010  -0.000067528   0.601322467
Y1       0.500635957  -0.001285781   0.617252008
Y1      -0.001241791   0.500575843   0.617255738
Y1       0.500640943   0.500566545   0.617251800
C1      -0.000004286   0.000091388   0.683715831
H1      -0.000008154   0.000086720   0.726332236
End final coordinates

     Writing output data file calc.save

     General routines

     Parallel routines

   This run was terminated on:  21:51:45  24Apr2018

   JOB DONE.
Job  /afs/slac/g/suncat/bin/suncat-tsmpirun -x LD_LIBRARY_PATH -wdir /scratch/qe163007_TuyRD pw.x -npool 4 -in pw.inp

TID   HOST_NAME   COMMAND_LINE            STATUS            TERMINATION_TIME
00000 suncat0247 pw.x -npool 4 -i  Done                     04/24/2018 21:51:45
00001 suncat0247 pw.x -npool 4 -i  Done                     04/24/2018 21:51:45
00002 suncat0247 pw.x -npool 4 -i  Done                     04/24/2018 21:51:45
00003 suncat0247 pw.x -npool 4 -i  Done                     04/24/2018 21:51:45
00004 suncat0247 pw.x -npool 4 -i  Done                     04/24/2018 21:51:45
00005 suncat0247 pw.x -npool 4 -i  Done                     04/24/2018 21:51:45
00006 suncat0247 pw.x -npool 4 -i  Done                     04/24/2018 21:51:45
00007 suncat0247 pw.x -npool 4 -i  Done                     04/24/2018 21:51:45
00008 suncat0226 pw.x -npool 4 -i  Done                     04/24/2018 21:51:45
00009 suncat0226 pw.x -npool 4 -i  Done                     04/24/2018 21:51:45
00010 suncat0226 pw.x -npool 4 -i  Done                     04/24/2018 21:51:45
00011 suncat0226 pw.x -npool 4 -i  Done                     04/24/2018 21:51:45
00012 suncat0226 pw.x -npool 4 -i  Done                     04/24/2018 21:51:45
00013 suncat0226 pw.x -npool 4 -i  Done                     04/24/2018 21:51:45
00014 suncat0226 pw.x -npool 4 -i  Done                     04/24/2018 21:51:45
00015 suncat0226 pw.x -npool 4 -i  Done                     04/24/2018 21:51:45
00016 suncat0221 pw.x -npool 4 -i  Done                     04/24/2018 21:51:45
00017 suncat0221 pw.x -npool 4 -i  Done                     04/24/2018 21:51:45
00018 suncat0221 pw.x -npool 4 -i  Done                     04/24/2018 21:51:45
00019 suncat0221 pw.x -npool 4 -i  Done                     04/24/2018 21:51:45
00020 suncat0221 pw.x -npool 4 -i  Done                     04/24/2018 21:51:45
00021 suncat0221 pw.x -npool 4 -i  Done                     04/24/2018 21:51:45
00022 suncat0221 pw.x -npool 4 -i  Done                     04/24/2018 21:51:45
00023 suncat0221 pw.x -npool 4 -i  Done                     04/24/2018 21:51:45
00024 suncat0219 pw.x -npool 4 -i  Done                     04/24/2018 21:51:45
00025 suncat0219 pw.x -npool 4 -i  Done                     04/24/2018 21:51:45
00026 suncat0219 pw.x -npool 4 -i  Done                     04/24/2018 21:51:45
00027 suncat0219 pw.x -npool 4 -i  Done                     04/24/2018 21:51:45
00028 suncat0219 pw.x -npool 4 -i  Done                     04/24/2018 21:51:45
00029 suncat0219 pw.x -npool 4 -i  Done                     04/24/2018 21:51:45
00030 suncat0219 pw.x -npool 4 -i  Done                     04/24/2018 21:51:45
00031 suncat0219 pw.x -npool 4 -i  Done                     04/24/2018 21:51:45