     Program PWSCF v.5.1rc2 (svn rev. 11289) starts on  2May2018 at 13: 9:33

     Current dimensions of program PWSCF are:
     Max number of different atomic species (ntypx) = 10
     Max number of k-points (npk) =  40000
     Max angular momentum in pseudopotentials (lmaxx) =  3
     Presently stress not available with electric field

     IMPORTANT: XC functional enforced from input :
     Exchange-correlation      = BEEF-VDW ( 1  4 27 13 2)
     Any further DFT definition will be discarded
     Please, verify this is what you really want

     Subspace diagonalization in iterative solution of the eigenvalue problem:
     a serial algorithm will be used

     bravais-lattice index     =            0
     lattice parameter (alat)  =       1.8897  a.u.
     unit-cell volume          =    3724.3394 (a.u.)^3
     number of atoms/cell      =           13
     number of atomic types    =            2
     number of electrons       =       169.00
     number of Kohn-Sham states=           94
     kinetic-energy cutoff     =      36.7493  Ry
     charge density cutoff     =     367.4932  Ry
     convergence threshold     =      1.0E-05
     mixing beta               =       0.3000
     number of iterations used =           10  plain     mixing
     Exchange-correlation      = BEEF-VDW ( 1  4 27 13 2)
     nstep                     =           50

     celldm(1)=   1.889726  celldm(2)=   0.000000  celldm(3)=   0.000000
     celldm(4)=   0.000000  celldm(5)=   0.000000  celldm(6)=   0.000000

     crystal axes: (cart. coord. in units of alat)
               a(1) = (   5.132588   0.000000   0.000000 )
               a(2) = (   2.566294   4.444952   0.000000 )
               a(3) = (   0.000000   0.000000  24.190741 )

     reciprocal axes: (cart. coord. in units 2 pi/alat)
               b(1) = (  0.194833 -0.112487  0.000000 )
               b(2) = (  0.000000  0.224974  0.000000 )
               b(3) = (  0.000000  0.000000  0.041338 )

     PseudoPot. # 1 for Cr read from file:
     /u/if/mamunm/psp/gbrv1.5pbe/Cr.UPF
     MD5 check sum: 0d52af634a40206e4dee301ad30da4bf
     Pseudo is Ultrasoft + core correction, Zval = 14.0
     Generated by new atomic code, or converted to UPF format
     Using radial grid of  857 points,  6 beta functions with:
                l(1) =   0
                l(2) =   0
                l(3) =   1
                l(4) =   1
                l(5) =   2
                l(6) =   2
     Q(r) pseudized with  8 coefficients,  rinner =    0.950   0.950   0.950
                                                       0.950   0.950

     PseudoPot. # 2 for H  read from file:
     /u/if/mamunm/psp/gbrv1.5pbe/H.UPF
     MD5 check sum: 761ae9a214b05c3daf00ab9f6b793d6f
     Pseudo is Ultrasoft, Zval =  1.0
     Generated by new atomic code, or converted to UPF format
     Using radial grid of  615 points,  2 beta functions with:
                l(1) =   0
                l(2) =   0
     Q(r) pseudized with  8 coefficients,  rinner =    0.700

     vdW kernel table read from file vdW_kernel_table
     MD5 check sum: 095c7af220d748ca6e76c0b4c6cfb241

     atomic species   valence    mass     pseudopotential
        Cr1           14.00    51.99610     Cr( 1.00)
        H1             1.00     1.00800     H ( 1.00)

     No symmetry found

   Cartesian axes

     site n.     atom                  positions (alat units)
         1           Cr1 tau(   1) = (   1.2831471   0.7408253  10.0000000  )
         2           Cr1 tau(   2) = (   3.8494412   0.7408253  10.0000000  )
         3           Cr1 tau(   3) = (   2.5662941   2.9633012  10.0000000  )
         4           Cr1 tau(   4) = (   5.1325882   2.9633012  10.0000000  )
         5           Cr1 tau(   5) = (   5.1325882   1.4816506  12.0953704  )
         6           Cr1 tau(   6) = (   2.5662941   1.4816506  12.0953704  )
         7           Cr1 tau(   7) = (   6.4157353   3.7041265  12.0953704  )
         8           Cr1 tau(   8) = (   3.8494412   3.7041265  12.0953704  )
         9           Cr1 tau(   9) = (   0.0000000   0.0000000  14.1907408  )
        10           Cr1 tau(  10) = (   2.5662941   0.0000000  14.1907408  )
        11           Cr1 tau(  11) = (   1.2831471   2.2224759  14.1907408  )
        12           Cr1 tau(  12) = (   3.8494412   2.2224759  14.1907408  )
        13           H1  tau(  13) = (   0.0000000   0.0000000  15.6357408  )

     number of k points=    20  Fermi-Dirac smearing, width (Ry)=  0.0110
                       cart. coord. in units 2pi/alat
        k(    1) = (   0.0000000   0.0000000   0.0000000), wk =   0.0555556
        k(    2) = (   0.0000000   0.0374957   0.0000000), wk =   0.1111111
        k(    3) = (   0.0000000   0.0749914   0.0000000), wk =   0.1111111
        k(    4) = (   0.0000000  -0.1124872   0.0000000), wk =   0.0555556
        k(    5) = (   0.0324722  -0.0187479   0.0000000), wk =   0.1111111
        k(    6) = (   0.0324722   0.0187479   0.0000000), wk =   0.1111111
        k(    7) = (   0.0324722   0.0562436   0.0000000), wk =   0.1111111
        k(    8) = (   0.0324722  -0.1312350   0.0000000), wk =   0.1111111
        k(    9) = (   0.0324722  -0.0937393   0.0000000), wk =   0.1111111
        k(   10) = (   0.0324722  -0.0562436   0.0000000), wk =   0.1111111
        k(   11) = (   0.0649445  -0.0374957   0.0000000), wk =   0.1111111
        k(   12) = (   0.0649445   0.0000000   0.0000000), wk =   0.1111111
        k(   13) = (   0.0649445   0.0374957   0.0000000), wk =   0.1111111
        k(   14) = (   0.0649445  -0.1499829   0.0000000), wk =   0.1111111
        k(   15) = (   0.0649445  -0.1124872   0.0000000), wk =   0.1111111
        k(   16) = (   0.0649445  -0.0749914   0.0000000), wk =   0.1111111
        k(   17) = (  -0.0974167   0.0562436   0.0000000), wk =   0.0555556
        k(   18) = (  -0.0974167   0.0937393   0.0000000), wk =   0.1111111
        k(   19) = (  -0.0974167   0.1312350   0.0000000), wk =   0.1111111
        k(   20) = (  -0.0974167  -0.0562436   0.0000000), wk =   0.0555556

     Largest allocated arrays     est. size (Mb)     dimensions
     Largest temporary arrays     est. size (Mb)     dimensions

     Check: negative/imaginary core charge=   -0.000004    0.000000

     Initial potential from superposition of free atoms
     Check: negative starting charge=   -0.014998

     starting charge  156.99981, renormalised to  169.00000

     negative rho (up, down):  1.614E-02 0.000E+00

     *
     * You are using vdW-DF for exchange-correlation in this calculation.
     * Please cite the following three references that made this development
     * possible:
     *
     *   M. Dion, H. Rydberg, E. Schroder, D. C. Langreth, and
     *   B. I. Lundqvist, Phys. Rev. Lett. 92, 246401 (2004).
     *
     *   T. Thonhauser, V. R. Cooper, S. Li, A. Puzder, P. Hyldgaard, and
     *   D. C. Langreth, Phys. Rev. B 76, 125112 (2007).
     *
     *   G. Roman-Perez and J. M. Soler, Phys. Rev. Lett. 103, 096102 (2009).
     *
     *
     * If you are using vdW-DF2, please also cite:
     *
     *   K. Lee, E. D. Murray, L. Kong, B. I. Lundqvist, and
     *   D. C. Langreth, Phys. Rev. B 82, 081101(R) (2010).
     *
     *
     * If you are calculating the stress with vdW-DF, please also cite:
     *
     *   R. Sabatini, E. Kucukbenli, B. Kolb, T. Thonhauser, and
     *   S. de Gironcoli, J. Phys.: Condens. Matter 24, 424209 (2012).
     *

     Carrying out vdW-DF run using the following parameters:

     Nqs =      20    Nr_points =    1024   r_max =   100.000
     q_mesh =
               0.00001000     0.04494208     0.09755937     0.15916263
               0.23128650     0.31572767     0.41458969     0.53033537
               0.66584808     0.82450364     1.01025438     1.22772762
               1.48234092     1.78043706     2.12944203     2.53805004
               3.01644009     3.57652955     4.23227104     5.00000000

     Gradients computed in reciprocal space

     Adding external electric field

     Computed dipole along edir(3) :
        Dipole               -0.5113 Ry au,         -1.2996 Debye
        Dipole field         -0.0017 Ry au

        Potential amp.        0.1538 Ry
        Total length         44.5710 bohr

     Starting wfc are  121 randomized atomic wfcs

     Self-consistent Calculation

     iteration #  1     ecut=    36.75 Ry     beta=0.30
     Davidson diagonalization with overlap
     ethr =  1.00E-02,  avg # of iterations =  5.9

[...]

     total energy              =   -2105.36498288 Ry
     Harris-Foulkes estimate   =   -2123.32586360 Ry
     estimated scf accuracy    <      39.53299515 Ry

[...]

     End of self-consistent calculation

          k = 0.0000 0.0000 0.0000 ( 14081 PWs)   bands (ev):

   -70.6983 -70.5842 -70.5719 -70.5568 -70.5558 -70.5445 -70.4974 -70.4967
   -70.4531 -70.4517 -70.4506 -70.3532 -42.3009 -42.3004 -42.2754 -42.2365
   -42.1729 -42.1725 -42.1711 -42.0899 -42.0895 -42.0892 -41.9590 -41.8961
   -41.8955 -41.8450 -41.8418 -41.8412 -41.7846 -41.7828 -41.7746 -41.7742
   -41.7177 -41.7171 -41.6961 -41.6518 -41.6172 -41.6171 -41.6107 -41.6042
   -41.6037 -41.5982 -41.5790 -41.5785 -41.4684 -41.4683 -41.4589 -41.4588
    -5.7269  -4.0904  -2.9621  -2.6320  -2.6266  -2.6265  -2.6045  -2.3090
    -2.3089  -2.0121  -1.8643  -1.8643  -1.8180  -1.7576  -1.7574  -1.6257
    -0.8881  -0.8850  -0.8847   0.0838   0.1025   0.1025   0.1718   0.3515
     0.6058   0.6058   0.7842   0.8143   0.8144   0.8445   0.8450   0.8544
     0.8709   0.8712   0.9804   0.9804   1.3839   1.6348   1.6492   1.6495
     1.9312   1.9620   1.9624   2.2348   2.2348   2.3341

[...]

          k =-0.0974 0.0562 0.0000 ( 14010 PWs)   bands (ev):

[...]

     the Fermi energy is     1.0215 ev

!    total energy              =   -2116.02550974 Ry
     Harris-Foulkes estimate   =   -2116.02551734 Ry
     estimated scf accuracy    <       0.00000930 Ry

     The total energy is the sum of the following terms:

     one-electron contribution =  -19504.47700830 Ry
     hartree contribution      =    9742.65876281 Ry
     xc contribution           =    -279.87188308 Ry
     ewald contribution        =    7925.79871845 Ry
     electric field correction =       0.00000971 Ry
     smearing contrib. (-TS)   =      -0.13410932 Ry

     convergence has been achieved in  35 iterations

 BEEF-vdW xc energy contributions
           1 :   -242.325213416032
           2 :    218.174138163366
           3 :   -177.837083975867
           4 :    133.455985446377
           5 :   -96.0843628503296
           6 :    71.6408995531219
           7 :   -59.7941870672919
           8 :    55.8050143635087
           9 :   -53.9019315030960
          10 :    50.2530513901623
          11 :   -44.1844251669863
          12 :    37.4484543455798
          13 :   -32.3854103906825
          14 :    30.2160196751385
          15 :   -30.3901163649828
          16 :    31.1592541147128
          17 :   -30.8198981495389
          18 :    28.7619504034690
          19 :   -25.6949548481359
          20 :    23.0060950865804
          21 :   -21.7591266626358
          22 :    22.0169575817124
          23 :   -22.8917025716809
          24 :    23.2112230262659
          25 :   -22.3062047200995
          26 :    20.3952012764442
          27 :   -18.3606705868912
          28 :    17.1178947767993
          29 :   -17.0178655464886
          30 :    17.6612493097530
          31 :   -23.9323137769621
          32 :   -17.1957523064887

     Forces acting on atoms (Ry/au):

     negative rho (up, down):  1.463E-02 0.000E+00
     atom    1 type  1   force =     0.00033738    0.00018342    0.00018690
     atom    2 type  1   force =    -0.00035617    0.00016546    0.00014648
     atom    3 type  1   force =     0.00000259   -0.00039068    0.00018492
     atom    4 type  1   force =     0.00000792    0.00001199    0.00362212
     atom    5 type  1   force =    -0.00003083    0.00231910   -0.00660942
     atom    6 type  1   force =     0.00001720    0.00000527    0.00528798
     atom    7 type  1   force =    -0.00198305   -0.00114724   -0.00668694
     atom    8 type  1   force =     0.00199802   -0.00116263   -0.00660784
     atom    9 type  1   force =    -0.00000294   -0.00000084   -0.09587358
     atom   10 type  1   force =     0.00000189   -0.00349980   -0.00453321
     atom   11 type  1   force =    -0.00302604    0.00175327   -0.00449096
     atom   12 type  1   force =     0.00303000    0.00176043   -0.00450232
     atom   13 type  2   force =     0.00000402    0.00000226    0.11987586

     Total force =     0.153817     Total SCF correction =     0.006113

     entering subroutine stress ...

     negative rho (up, down):  1.463E-02 0.000E+00
          total   stress  (Ry/bohr**3)                   (kbar)     P=  -22.80
  -0.00027121   0.00000006   0.00000001        -39.90      0.01      0.00
   0.00000006  -0.00027116  -0.00000003          0.01    -39.89     -0.00
   0.00000001  -0.00000003   0.00007744          0.00     -0.00     11.39

     BFGS Geometry Optimization

     number of scf cycles    =   1
     number of bfgs steps    =   0

     energy   new            =   -2116.0255097408 Ry

     new trust radius        =       0.1198758584 bohr
     new conv_thr            =       0.0000099958 Ry

ATOMIC_POSITIONS (crystal)
Cr1      0.166666667   0.166666667   0.413381306    0   0   0
Cr1      0.666666667   0.166666667   0.413381306    0   0   0
Cr1      0.166666667   0.666666667   0.413381306    0   0   0
Cr1      0.666666667   0.666666667   0.413381306    0   0   0
Cr1      0.833333333   0.333333333   0.500000000    0   0   0
Cr1      0.333333333   0.333333333   0.500000000    0   0   0
Cr1      0.833333333   0.833333333   0.500000000    0   0   0
Cr1      0.333333333   0.833333333   0.500000000    0   0   0
Cr1     -0.000000253  -0.000000100   0.584521441
Cr1      0.500208523  -0.000416656   0.586519529
Cr1     -0.000416353   0.500208729   0.586520454
Cr1      0.500207607   0.500209581   0.586520205
H1       0.000000281   0.000000269   0.648974601

     Writing output data file calc.save
     Check: negative starting charge=   -0.014998
     NEW-OLD atomic charge density approx. for the potential

     Check: negative/imaginary core charge=   -0.000004    0.000000
     Check: negative starting charge=   -0.014937

[...]

     iteration # 10     ecut=    36.75 Ry     beta=0.30
     Davidson diagonalization with overlap
     c_bands:  1 eigenvalues not converged
     ethr =  2.09E-05,  avg # of iterations =  6.0

[...]

     energy   old            =   -2116.0255097407 Ry
     energy   new            =   -2116.0403305372 Ry

     CASE: energy  _new < energy  _old

[...]

     iteration #  1     ecut=    36.75 Ry     beta=0.30
     Davidson diagonalization with overlap
     c_bands:  1 eigenvalues not converged
     ethr =  1.00E-06,  avg # of iterations =  6.2

[...]

     Total force =     0.004667     Total SCF correction =     0.000592
     SCF correction compared to forces is large: reduce conv_thr to get better values

[...]

     new trust radius        =       0.0042285750 bohr
     new conv_thr            =       0.0000001000 Ry

[...]

     number of scf cycles    =  11
     number of bfgs steps    =  10

     energy   old            =   -2116.0482884466 Ry
     energy   new            =   -2116.0483078490 Ry

     CASE: energy  _new < energy  _old

     WARNING: bfgs curvature condition failed, Theta= 0.982
     new trust radius        =       0.0063428624 bohr
     new conv_thr            =       0.0000001000 Ry

ATOMIC_POSITIONS (crystal)
Cr1      0.166666667   0.166666667   0.413381306    0   0   0
Cr1      0.666666667   0.166666667   0.413381306    0   0   0
Cr1      0.166666667   0.666666667   0.413381306    0   0   0
Cr1      0.666666667   0.666666667   0.413381306    0   0   0
Cr1      0.833333333   0.333333333   0.500000000    0   0   0
Cr1      0.333333333   0.333333333   0.500000000    0   0   0
Cr1      0.833333333   0.833333333   0.500000000    0   0   0
Cr1      0.333333333   0.833333333   0.500000000    0   0   0
Cr1     -0.000001520   0.000001316   0.591976922
Cr1      0.501565093  -0.003132800   0.585489034
Cr1     -0.003126253   0.501563624   0.585488073
Cr1      0.501566961   0.501564187   0.585491064
H1      -0.000000363   0.000001460   0.659731407

     Writing output data file calc.save
     Check: negative starting charge=   -0.014579
     NEW-OLD atomic charge density approx. for the potential

     Check: negative/imaginary core charge=   -0.000004    0.000000
     Check: negative starting charge=   -0.014740

[...]

     Self-consistent Calculation

[...]

     total energy              =   -2116.04834491 Ry
     Harris-Foulkes estimate   =   -2116.04834492 Ry
     estimated scf accuracy    <       0.00000012 Ry

     iteration # 22     ecut=    36.75 Ry     beta=0.30
     Davidson diagonalization with overlap
     ethr =  6.85E-11,  avg # of iterations =  1.0

[...]

     negative rho (up, down):  1.442E-02 0.000E+00

     Adding external electric field

     Computed dipole along edir(3) :
        Dipole               -0.1380 Ry au,         -0.3508 Debye
        Dipole field         -0.0005 Ry au

        Potential amp.        0.0415 Ry
        Total length         44.5710 bohr

     End of self-consistent calculation

[...]

          k = 0.0649-0.0750 0.0000 ( 13990 PWs)   bands (ev):

[...]

          k =-0.0974-0.0562 0.0000 ( 14010 PWs)   bands (ev):

   -70.7784 -70.7731 -70.7078 -70.7055 -70.6782 -70.6630 -70.6363 -70.6337
   -70.6292 -70.5896 -70.5873 -70.5862 -42.3217 -42.3198 -42.2928 -42.2649
   -42.2357 -42.2274 -42.1745 -42.1592 -42.1300 -42.1138 -42.1133 -42.0910
   -41.9888 -41.9721 -41.9529 -41.9508 -41.9359 -41.9346 -41.9321 -41.9279
   -41.9124 -41.9091 -41.9050 -41.8838 -41.8727 -41.8640 -41.8430 -41.8368
   -41.8051 -41.8028 -41.7884 -41.7777 -41.7023 -41.6943 -41.6676 -41.6622
    -4.0092  -3.9642  -2.7911  -2.6085  -2.0441  -1.9647  -1.9615  -1.9271
    -1.8665  -1.7137  -1.5832  -1.2858  -1.2260  -1.1123  -1.0422  -1.0056
    -0.9579  -0.6381  -0.5896  -0.5152  -0.4898  -0.4763  -0.3283  -0.1784
    -0.0381   0.0334   0.0936   0.1407   0.2102   0.2246   0.2540   0.3357
     0.3998   0.4127   0.5703   0.5998   0.6007   0.7764   0.8706   1.0286
     1.0819   1.3932   1.5295   1.5343   1.5746   1.6023

     the Fermi energy is     0.8870 ev

!    total energy              =   -2116.04834490 Ry
     Harris-Foulkes estimate   =   -2116.04834507 Ry
     estimated scf accuracy    <       0.00000003 Ry

     The total energy is the sum of the following terms:

     one-electron contribution =  -19447.73033297 Ry
     hartree contribution      =    9713.50964798 Ry
     xc contribution           =    -279.76390103 Ry
     ewald contribution        =    7898.06955295 Ry
     electric field correction =       0.00006426 Ry
     smearing contrib. (-TS)   =      -0.13337609 Ry

     convergence has been achieved in  22 iterations

 BEEF-vdW xc energy contributions
           1 :   -242.217321838906
           2 :    218.040988796741
           3 :   -177.680040741988
           4 :    133.304435399637
           5 :   -95.9769940620221
           6 :    71.6009812156561
           7 :   -59.8119930620145
           8 :    55.8403810171054
           9 :   -53.9079128813927
          10 :    50.2059430568331
          11 :   -44.0985796284256
          12 :    37.3640998686528
          13 :   -32.3379636804857
          14 :    30.2103500787013
          15 :   -30.3992994643738
          16 :    31.1470814322164
          17 :   -30.7681763628683
          18 :    28.6818134805078
          19 :   -25.6150783937678
          20 :    22.9490766905537
          21 :   -21.7253612525405
          22 :    21.9876301656602
          23 :   -22.8474038848365
          24 :    23.1506797497312
          25 :   -22.2492015177053
          26 :    20.3664903516018
          27 :   -18.3670294680301
          28 :    17.1361384127625
          29 :   -17.0045634114441
          30 :    17.5787036313917
          31 :   -23.9250449176263
          32 :   -17.1834997075850

     Forces acting on atoms (Ry/au):

     negative rho (up, down):  1.442E-02 0.000E+00
     atom    1 type  1   force =     0.00003057    0.00001831    0.00071860
     atom    2 type  1   force =    -0.00003004    0.00001856    0.00071798
     atom    3 type  1   force =    -0.00000045   -0.00003609    0.00071811
     atom    4 type  1   force =     0.00000030   -0.00000047    0.00111344
     atom    5 type  1   force =    -0.00000430   -0.00737567    0.00148234
     atom    6 type  1   force =     0.00000486    0.00000122   -0.00284092
     atom    7 type  1   force =     0.00638814    0.00369019    0.00147681
     atom    8 type  1   force =    -0.00638821    0.00368603    0.00148574
     atom    9 type  1   force =    -0.00000046    0.00000060   -0.00034763
     atom   10 type  1   force =    -0.00000036    0.00009637   -0.00158836
     atom   11 type  1   force =     0.00008359   -0.00004873   -0.00158920
     atom   12 type  1   force =    -0.00008350   -0.00005042   -0.00159642
     atom   13 type  2   force =    -0.00000016    0.00000011    0.00024950

     Total force =     0.002794     Total SCF correction =     0.000189

     entering subroutine stress ...

     negative rho (up, down):  1.442E-02 0.000E+00
          total   stress  (Ry/bohr**3)                   (kbar)     P=  -27.08
  -0.00026750   0.00000000   0.00000000        -39.35      0.00      0.00
   0.00000000  -0.00026750  -0.00000000          0.00    -39.35     -0.00
   0.00000000  -0.00000000  -0.00001729          0.00     -0.00     -2.54

     bfgs converged in  12 scf cycles and  11 bfgs steps
     (criteria: energy <  1.0E+00, force <  1.9E-03)

     End of BFGS Geometry Optimization

     Final energy   =   -2116.0483448966 Ry
Begin final coordinates

ATOMIC_POSITIONS (crystal)
Cr1      0.166666667   0.166666667   0.413381306    0   0   0
Cr1      0.666666667   0.166666667   0.413381306    0   0   0
Cr1      0.166666667   0.666666667   0.413381306    0   0   0
Cr1      0.666666667   0.666666667   0.413381306    0   0   0
Cr1      0.833333333   0.333333333   0.500000000    0   0   0
Cr1      0.333333333   0.333333333   0.500000000    0   0   0
Cr1      0.833333333   0.833333333   0.500000000    0   0   0
Cr1      0.333333333   0.833333333   0.500000000    0   0   0
Cr1     -0.000001520   0.000001316   0.591976922
Cr1      0.501565093  -0.003132800   0.585489034
Cr1     -0.003126253   0.501563624   0.585488073
Cr1      0.501566961   0.501564187   0.585491064
H1      -0.000000363   0.000001460   0.659731407
End final coordinates

     Writing output data file calc.save

     General routines

     Parallel routines

   This run was terminated on:  14:40:48   2May2018

   JOB DONE.
Job  /afs/slac/g/suncat/bin/suncat-tsmpirun -x LD_LIBRARY_PATH -wdir /scratch/qe648994_nkdGy pw.x -npool 4 -in pw.inp

TID   HOST_NAME   COMMAND_LINE            STATUS            TERMINATION_TIME
00000 suncat0091 pw.x -npool 4 -i  Done                     05/02/2018 14:40:48
00001 suncat0091 pw.x -npool 4 -i  Done                     05/02/2018 14:40:48
00002 suncat0091 pw.x -npool 4 -i  Done                     05/02/2018 14:40:48
00003 suncat0091 pw.x -npool 4 -i  Done                     05/02/2018 14:40:48
00004 suncat0091 pw.x -npool 4 -i  Done                     05/02/2018 14:40:48
00005 suncat0091 pw.x -npool 4 -i  Done                     05/02/2018 14:40:48
00006 suncat0091 pw.x -npool 4 -i  Done                     05/02/2018 14:40:48
00007 suncat0091 pw.x -npool 4 -i  Done                     05/02/2018 14:40:48
00008 suncat0090 pw.x -npool 4 -i  Done                     05/02/2018 14:40:48
00009 suncat0090 pw.x -npool 4 -i  Done                     05/02/2018 14:40:48
00010 suncat0090 pw.x -npool 4 -i  Done                     05/02/2018 14:40:48
00011 suncat0090 pw.x -npool 4 -i  Done                     05/02/2018 14:40:48
00012 suncat0090 pw.x -npool 4 -i  Done                     05/02/2018 14:40:48
00013 suncat0090 pw.x -npool 4 -i  Done                     05/02/2018 14:40:48
00014 suncat0090 pw.x -npool 4 -i  Done                     05/02/2018 14:40:48
00015 suncat0090 pw.x -npool 4 -i  Done                     05/02/2018 14:40:48
00016 suncat0048 pw.x -npool 4 -i  Done                     05/02/2018 14:40:48
00017 suncat0048 pw.x -npool 4 -i  Done                     05/02/2018 14:40:48
00018 suncat0048 pw.x -npool 4 -i  Done                     05/02/2018 14:40:48
00019 suncat0048 pw.x -npool 4 -i  Done                     05/02/2018 14:40:48
00020 suncat0048 pw.x -npool 4 -i  Done                     05/02/2018 14:40:48
00021 suncat0048 pw.x -npool 4 -i  Done                     05/02/2018 14:40:48
00022 suncat0048 pw.x -npool 4 -i  Done                     05/02/2018 14:40:48
00023 suncat0048 pw.x -npool 4 -i  Done                     05/02/2018 14:40:48
00024 suncat0047 pw.x -npool 4 -i  Done                     05/02/2018 14:40:48
00025 suncat0047 pw.x -npool 4 -i  Done                     05/02/2018 14:40:48
00026 suncat0047 pw.x -npool 4 -i  Done                     05/02/2018 14:40:48
00027 suncat0047 pw.x -npool 4 -i  Done                     05/02/2018 14:40:48
00028 suncat0047 pw.x -npool 4 -i  Done                     05/02/2018 14:40:48
00029 suncat0047 pw.x -npool 4 -i  Done                     05/02/2018 14:40:48
00030 suncat0047 pw.x -npool 4 -i  Done                     05/02/2018 14:40:48
00031 suncat0047 pw.x -npool 4 -i  Done                     05/02/2018 14:40:48