     Program PWSCF v.5.1rc2 (svn rev. ) starts on 23Apr2018 at  3:18:59

     Current dimensions of program PWSCF are:
     Max number of different atomic species (ntypx) = 10
     Max number of k-points (npk) =  40000
     Max angular momentum in pseudopotentials (lmaxx) =  3
     Presently stress not available with electric field

     IMPORTANT: XC functional enforced from input :
     Exchange-correlation      = BEEF-VDW ( 1  4 27 13 2)
     Any further DFT definition will be discarded
     Please, verify this is what you really want

     Subspace diagonalization in iterative solution of the eigenvalue problem:
     a serial algorithm will be used

     bravais-lattice index     =            0
     lattice parameter (alat)  =       1.8897  a.u.
     unit-cell volume          =    6741.9070 (a.u.)^3
     number of atoms/cell      =           14
     number of atomic types    =            3
     number of electrons       =       175.00
     number of Kohn-Sham states=           97
     kinetic-energy cutoff     =      36.7493  Ry
     charge density cutoff     =     367.4932  Ry
     convergence threshold     =      1.0E-05
     mixing beta               =       0.3000
     number of iterations used =           10  plain     mixing
     Exchange-correlation      = BEEF-VDW ( 1  4 27 13 2)
     nstep                     =           50

     celldm(1)=   1.889726  celldm(2)=   0.000000  celldm(3)=   0.000000
     celldm(4)=   0.000000  celldm(5)=   0.000000  celldm(6)=   0.000000

     crystal axes: (cart. coord. in units of alat)
               a(1) = (   6.726993   0.000000   0.000000 )
               a(2) = (   3.363497   5.825747   0.000000 )
               a(3) = (   0.000000   0.000000  25.492567 )

     reciprocal axes: (cart. coord. in units 2 pi/alat)
               b(1) = (  0.148655 -0.085826  0.000000 )
               b(2) = (  0.000000  0.171652  0.000000 )
               b(3) = (  0.000000  0.000000  0.039227 )

     PseudoPot. # 1 for Sn read from file:
     /home/mamunm/src/pseudo/gbrv1.5pbe/Sn.UPF
     MD5 check sum: 469debedee59599fedebd795477fea03
     Pseudo is Ultrasoft + core correction, Zval = 14.0
     Generated by new atomic code, or converted to UPF format
     Using radial grid of  891 points,  6 beta functions with:
                l(1) =   0
                l(2) =   0
                l(3) =   1
                l(4) =   1
                l(5) =   2
                l(6) =   2
     Q(r) pseudized with  8 coefficients,  rinner =    1.350   1.350   1.350
                                                       1.350   1.350

     PseudoPot. # 2 for O  read from file:
     /home/mamunm/src/pseudo/gbrv1.5pbe/O.UPF
     MD5 check sum: 734c27235a0248c51dbae37a1fbe46ec
     Pseudo is Ultrasoft + core correction, Zval =  6.0
     Generated by new atomic code, or converted to UPF format
     Using radial grid of  737 points,  5 beta functions with:
                l(1) =   0
                l(2) =   0
                l(3) =   1
                l(4) =   1
                l(5) =   2
     Q(r) pseudized with  8 coefficients,  rinner =    0.900   0.900   0.900
                                                       0.900   0.900

     PseudoPot. # 3 for H  read from file:
     /home/mamunm/src/pseudo/gbrv1.5pbe/H.UPF
     MD5 check sum: 761ae9a214b05c3daf00ab9f6b793d6f
     Pseudo is Ultrasoft, Zval =  1.0
     Generated by new atomic code, or converted to UPF format
     Using radial grid of  615 points,  2 beta functions with:
                l(1) =   0
                l(2) =   0
     Q(r) pseudized with  8 coefficients,  rinner =    0.700

     vdW kernel table read from file vdW_kernel_table
     MD5 check sum: 095c7af220d748ca6e76c0b4c6cfb241

     atomic species   valence    mass     pseudopotential
        Sn1           14.00   118.71000     Sn( 1.00)
        O1             6.00    15.99900     O ( 1.00)
        H1             1.00     1.00800     H ( 1.00)

     No symmetry found

   Cartesian axes

     site n.     atom                  positions (alat units)
         1           Sn1 tau(   1) = (   1.6817483   0.9709578  10.0000000  )
         2           Sn1 tau(   2) = (   5.0452448   0.9709578  10.0000000  )
         3           Sn1 tau(   3) = (   3.3634965   3.8838312  10.0000000  )
         4           Sn1 tau(   4) = (   6.7269931   3.8838312  10.0000000  )
         5           Sn1 tau(   5) = (   6.7269931   1.9419156  12.7462834  )
         6           Sn1 tau(   6) = (   3.3634965   1.9419156  12.7462834  )
         7           Sn1 tau(   7) = (   8.4087413   4.8547891  12.7462834  )
         8           Sn1 tau(   8) = (   5.0452448   4.8547891  12.7462834  )
         9           Sn1 tau(   9) = (   0.0000000   0.0000000  15.4925668  )
        10           Sn1 tau(  10) = (   3.3634965   0.0000000  15.4925668  )
        11           Sn1 tau(  11) = (   1.6817483   2.9128734  15.4925668  )
        12           Sn1 tau(  12) = (   5.0452448   2.9128734  15.4925668  )
        13           O1  tau(  13) = (   3.3634965   1.9419156  16.8250668  )
        14           H1  tau(  14) = (   3.3634965   1.9419156  17.7750668  )

     number of k points=    20  Fermi-Dirac smearing, width (Ry)=  0.0110
                       cart. coord. in units 2pi/alat
        k(    1) = (   0.0000000   0.0000000   0.0000000), wk =   0.0555556
        k(    2) = (   0.0000000   0.0286086   0.0000000), wk =   0.1111111
        k(    3) = (   0.0000000   0.0572173   0.0000000), wk =   0.1111111
        k(    4) = (   0.0000000  -0.0858259   0.0000000), wk =   0.0555556
        k(    5) = (   0.0247758  -0.0143043   0.0000000), wk =   0.1111111
        k(    6) = (   0.0247758   0.0143043   0.0000000), wk =   0.1111111
        k(    7) = (   0.0247758   0.0429130   0.0000000), wk =   0.1111111
        k(    8) = (   0.0247758  -0.1001302   0.0000000), wk =   0.1111111
        k(    9) = (   0.0247758  -0.0715216   0.0000000), wk =   0.1111111
        k(   10) = (   0.0247758  -0.0429130   0.0000000), wk =   0.1111111
        k(   11) = (   0.0495516  -0.0286086   0.0000000), wk =   0.1111111
        k(   12) = (   0.0495516   0.0000000   0.0000000), wk =   0.1111111
        k(   13) = (   0.0495516   0.0286086   0.0000000), wk =   0.1111111
        k(   14) = (   0.0495516  -0.1144345   0.0000000), wk =   0.1111111
        k(   15) = (   0.0495516  -0.0858259   0.0000000), wk =   0.1111111
        k(   16) = (   0.0495516  -0.0572173   0.0000000), wk =   0.1111111
        k(   17) = (  -0.0743274   0.0429130   0.0000000), wk =   0.0555556
        k(   18) = (  -0.0743274   0.0715216   0.0000000), wk =   0.1111111
        k(   19) = (  -0.0743274   0.1001302   0.0000000), wk =   0.1111111
        k(   20) = (  -0.0743274  -0.0429130   0.0000000), wk =   0.0555556

     Largest allocated arrays     est. size (Mb)     dimensions
     Largest temporary arrays     est. size (Mb)     dimensions

     Initial potential from superposition of free atoms
     Check: negative starting charge=   -0.001460

     starting charge  162.99945, renormalised to  175.00000

     negative rho (up, down):  1.567E-03 0.000E+00

     *
     * You are using vdW-DF for exchange-correlation in this calculation.
     * Please cite the following three references that made this development
     * possible:
     *
     *   M. Dion, H. Rydberg, E. Schroder, D. C. Langreth, and
     *   B. I. Lundqvist, Phys. Rev. Lett. 92, 246401 (2004).
     *
     *   T. Thonhauser, V. R. Cooper, S. Li, A. Puzder, P. Hyldgaard, and
     *   D. C. Langreth, Phys. Rev. B 76, 125112 (2007).
     *
     *   G. Roman-Perez and J. M. Soler, Phys. Rev. Lett. 103, 096102 (2009).
     *
     *
     * If you are using vdW-DF2, please also cite:
     *
     *   K. Lee, E. D. Murray, L. Kong, B. I. Lundqvist, and
     *   D. C. Langreth, Phys. Rev. B 82, 081101(R) (2010).
     *
     *
     * If you are calculating the stress with vdW-DF, please also cite:
     *
     *   R. Sabatini, E. Kucukbenli, B. Kolb, T. Thonhauser, and
     *   S. de Gironcoli, J. Phys.: Condens. Matter 24, 424209 (2012).
     *

     Carrying out vdW-DF run using the following parameters:

     Nqs =      20    Nr_points =    1024   r_max =   100.000
     q_mesh =
               0.00001000     0.04494208     0.09755937     0.15916263
               0.23128650     0.31572767     0.41458969     0.53033537
               0.66584808     0.82450364     1.01025438     1.22772762
               1.48234092     1.78043706     2.12944203     2.53805004
               3.01644009     3.57652955     4.23227104     5.00000000

     Gradients computed in reciprocal space

     Adding external electric field

     Computed dipole along edir(3) :
        Dipole               -4.1044 Ry au,        -10.4323 Debye
        Dipole field         -0.0077 Ry au

        Potential amp.        0.7187 Ry
        Total length         46.9696 bohr

     Starting wfc are  113 randomized atomic wfcs

     Self-consistent Calculation

     iteration #  1     ecut=    36.75 Ry     beta=0.30
     Davidson diagonalization with overlap
     ethr =  1.00E-02,  avg # of iterations =  8.3

[...]

     total energy              =   -1890.15021495 Ry
     Harris-Foulkes estimate   =   -1965.63852606 Ry
     estimated scf accuracy    <     160.42083869 Ry

     iteration #  2     ecut=    36.75 Ry     beta=0.30
     Davidson diagonalization with overlap
     c_bands:  1 eigenvalues not converged
     c_bands:  1 eigenvalues not converged
     c_bands:  1 eigenvalues not converged
     c_bands:  2 eigenvalues not converged
     c_bands:  1 eigenvalues not converged
     c_bands:  4 eigenvalues not converged
     ethr =  1.00E-02,  avg # of iterations = 18.6

[...]

     End of self-consistent calculation

          k = 0.0000 0.0000 0.0000 ( 25377 PWs)   bands (ev):

   -21.3054 -21.1129 -21.1067 -21.1067 -21.0506 -21.0506 -21.0358 -21.0182
   -21.0182 -21.0078 -20.9988 -20.9988 -20.9869 -20.9869 -20.9680 -20.9639
   -20.9638 -20.9307 -20.9242 -20.9188 -20.9159 -20.9159 -20.9096 -20.9059
   -20.9059 -20.9010 -20.9010 -20.8772 -20.8772 -20.8764 -20.8727 -20.8705
   -20.8705 -20.8696 -20.8604 -20.8604 -20.8327 -20.8327 -20.8105 -20.8105
   -20.8005 -20.7973 -20.7973 -20.7847 -20.7773 -20.7773 -20.7713 -20.7676
   -20.7660 -20.7660 -20.7603 -20.7603 -20.7561 -20.7561 -20.7388 -20.7388
   -20.7377 -20.7318 -20.7268 -20.7268 -19.6642  -9.7349  -8.7750  -7.5651
    -6.3457  -5.8543  -5.8543  -5.4537  -5.4537  -5.4334  -4.9723  -4.6308
    -4.6308  -4.2032  -3.0725  -3.0725  -2.8880  -2.8880  -2.6380  -2.2104
    -1.6148  -1.5101  -1.5101  -1.0547  -1.0547  -0.5423   0.6508   2.0445
     2.0445   2.1091   2.4394   2.4394   2.6373   3.0573   3.6180   3.6909
     3.6909

[...]

          k =-0.0743 0.0429 0.0000 ( 25386 PWs)   bands (ev):

[...]

     the Fermi energy is     1.1095 ev

!    total energy              =   -1962.08040384 Ry
     Harris-Foulkes estimate   =   -1962.08042056 Ry
     estimated scf accuracy    <       0.00000294 Ry

     The total energy is the sum of the following terms:

     one-electron contribution =  -10775.08299964 Ry
     hartree contribution      =    5455.31755390 Ry
     xc contribution           =    -542.36127228 Ry
     ewald contribution        =    3900.08898675 Ry
     electric field correction =       0.00013616 Ry
     smearing contrib. (-TS)   =      -0.04280872 Ry

     convergence has been achieved in  19 iterations

 BEEF-vdW xc energy contributions
           1 :   -476.385280458638
           2 :    435.835387585212
           3 :   -367.110557146364
           4 :    289.383032823145
           5 :   -220.784639008633
           6 :    172.049299903207
           7 :   -144.158979118241
           8 :    130.444746942045
           9 :   -121.584717892072
          10 :    110.707688911635
          11 :   -96.1072308749331
          12 :    80.6136835195468
          13 :   -68.5924531886403
          14 :    62.6697953462769
          15 :   -62.1210906541091
          16 :    63.5972123027851
          17 :   -63.4052286894141
          18 :    59.7370176904990
          19 :   -53.4933633264375
          20 :    47.3593634074019
          21 :   -43.8907027118693
          22 :    43.8880301765448
          23 :   -46.0391445257919
          24 :    47.9212134639341
          25 :   -47.6040450930275
          26 :    44.7912733801381
          27 :   -40.8322799709695
          28 :    37.7044397096109
          29 :   -36.7047882495744
          30 :    37.6995580616097
          31 :   -41.8307698204862
          32 :   -30.4030546595078

     Forces acting on atoms (Ry/au):

     negative rho (up, down):  5.324E-04 0.000E+00
     atom    1 type  1   force =    -0.00023324   -0.00013371   -0.00180031
     atom    2 type  1   force =     0.00023142   -0.00012847   -0.00179696
     atom    3 type  1   force =     0.00000698    0.00026989   -0.00179560
     atom    4 type  1   force =    -0.00000730   -0.00000091    0.00052868
     atom    5 type  1   force =    -0.00001251    0.00009775   -0.00877254
     atom    6 type  1   force =     0.00001300   -0.00000530    0.00467449
     atom    7 type  1   force =    -0.00008518   -0.00003985   -0.00876890
     atom    8 type  1   force =     0.00008649   -0.00005133   -0.00877382
     atom    9 type  1   force =    -0.00000142   -0.00000214   -0.00026903
     atom   10 type  1   force =     0.00000284   -0.01597703   -0.00656449
     atom   11 type  1   force =    -0.01383513    0.00798853   -0.00656565
     atom   12 type  1   force =     0.01383573    0.00798620   -0.00656943
     atom   13 type  2   force =    -0.00000080   -0.00000177   -0.01896161
     atom   14 type  3   force =    -0.00000090   -0.00000185    0.06543517

     Total force =     0.074407     Total SCF correction =     0.001653

     entering subroutine stress ...

     negative rho (up, down):  5.324E-04 0.000E+00
          total   stress  (Ry/bohr**3)                   (kbar)     P=    8.65
   0.00006166   0.00000000   0.00000000          9.07      0.00      0.00
   0.00000000   0.00006166   0.00000000          0.00      9.07      0.00
   0.00000000   0.00000000   0.00005307          0.00      0.00      7.81

     BFGS Geometry Optimization

     number of scf cycles    =   1
     number of bfgs steps    =   0

     energy   new            =   -1962.0804038416 Ry

     new trust radius        =       0.0654351701 bohr
     new conv_thr            =       0.0000099958 Ry

ATOMIC_POSITIONS (crystal)
Sn1      0.166666667   0.166666667   0.392271209    0   0   0
Sn1      0.666666667   0.166666667   0.392271209    0   0   0
Sn1      0.166666667   0.666666667   0.392271209    0   0   0
Sn1      0.666666667   0.666666667   0.392271209    0   0   0
Sn1      0.833333333   0.333333333   0.500000000    0   0   0
Sn1      0.333333333   0.333333333   0.500000000    0   0   0
Sn1      0.833333333   0.833333333   0.500000000    0   0   0
Sn1      0.333333333   0.833333333   0.500000000    0   0   0
Sn1     -0.000000015  -0.000000194   0.607723207
Sn1      0.500725854  -0.001451261   0.607592525
Sn1     -0.001451153   0.500725632   0.607592501
Sn1      0.500725674   0.500725420   0.607592423
O1       0.333333351   0.333333172   0.659605323
H1       0.333333347   0.333333165   0.698623004

     Writing output data file calc.save
     Check: negative starting charge=   -0.001460
     NEW-OLD atomic charge density approx. for the potential
     Check: negative starting charge=   -0.001453

[...]

     energy   old            =   -1962.0804038416 Ry
     energy   new            =   -1962.0818567346 Ry

     CASE: energy  _new < energy  _old

[...]

     Total force =     0.009531     Total SCF correction =     0.001047
     SCF correction compared to forces is large: reduce conv_thr to get better values

[...]

     Total force =     0.010029     Total SCF correction =     0.000630

[...]

     WARNING: bfgs curvature condition failed, Theta= 0.989
     new trust radius        =       0.0149687494 bohr
     new conv_thr            =       0.0000001000 Ry

[...]

     number of scf cycles    =  18
     number of bfgs steps    =  17

     energy   old            =   -1962.0946037196 Ry
     energy   new            =   -1962.0947784903 Ry

     CASE: energy  _new < energy  _old

     new trust radius        =       0.0505195292 bohr
     new conv_thr            =       0.0000001000 Ry

ATOMIC_POSITIONS (crystal)
Sn1      0.166666667   0.166666667   0.392271209    0   0   0
Sn1      0.666666667   0.166666667   0.392271209    0   0   0
Sn1      0.166666667   0.666666667   0.392271209    0   0   0
Sn1      0.666666667   0.666666667   0.392271209    0   0   0
Sn1      0.833333333   0.333333333   0.500000000    0   0   0
Sn1      0.333333333   0.333333333   0.500000000    0   0   0
Sn1      0.833333333   0.833333333   0.500000000    0   0   0
Sn1      0.333333333   0.833333333   0.500000000    0   0   0
Sn1     -0.000000545   0.000000741   0.605438459
Sn1      0.498978616   0.002043568   0.612687403
Sn1      0.002043709   0.498980767   0.612685711
Sn1      0.498977165   0.498973760   0.612687344
O1       0.333334751   0.333331322   0.675293428
H1       0.333334912   0.333331260   0.713654406

     Writing output data file calc.save
     Check: negative starting charge=   -0.001377
     NEW-OLD atomic charge density approx. for the potential
     Check: negative starting charge=   -0.001374

[...]

     Self-consistent Calculation

[...]

     total energy              =   -1962.09492826 Ry
     Harris-Foulkes estimate   =   -1962.09492817 Ry
     estimated scf accuracy    <       0.00000020 Ry

     iteration #  9     ecut=    36.75 Ry     beta=0.30
     Davidson diagonalization with overlap
     ethr =  1.17E-10,  avg # of iterations =  3.0

[...]

     negative rho (up, down):  5.579E-04 0.000E+00

     Adding external electric field

     Computed dipole along edir(3) :
        Dipole                0.1722 Ry au,          0.4378 Debye
        Dipole field          0.0003 Ry au

        Potential amp.       -0.0302 Ry
        Total length         46.9696 bohr

     End of self-consistent calculation

[...]

          k = 0.0496-0.0572 0.0000 ( 25368 PWs)   bands (ev):

[...]

          k =-0.0743-0.0429 0.0000 ( 25386 PWs)   bands (ev):

   -21.1986 -21.1769 -21.1382 -21.1361 -21.1272 -21.1261 -21.1214 -21.1155
   -21.1019 -21.1009 -21.0959 -21.0918 -21.0832 -21.0618 -21.0517 -21.0432
   -21.0313 -21.0184 -21.0116 -21.0090 -21.0080 -21.0064 -21.0045 -20.9994
   -20.9949 -20.9925 -20.9870 -20.9842 -20.9833 -20.9822 -20.9718 -20.9694
   -20.9679 -20.9603 -20.9540 -20.9496 -20.9492 -20.9390 -20.9358 -20.9342
   -20.9324 -20.9225 -20.9186 -20.9129 -20.9108 -20.9058 -20.9045 -20.9035
   -20.9025 -20.9010 -20.9001 -20.8949 -20.8931 -20.8850 -20.8783 -20.8777
   -20.8760 -20.8632 -20.8443 -20.8440 -18.7380  -8.6243  -8.5588  -7.8140
    -7.4326  -6.6592  -6.3499  -6.2176  -5.8482  -5.4737  -5.4662  -4.7902
    -4.2607  -3.9372  -2.8885  -2.3869  -1.2449  -1.1401  -1.1048  -1.0113
    -0.9534  -0.6900  -0.0402   0.1468   0.2487   0.4488   0.9861   1.1197
     1.3498   1.5285   1.6342   1.7867   2.1398   2.1421   2.2416   2.3088
     2.3812

     the Fermi energy is     1.0108 ev

!    total energy              =   -1962.09492832 Ry
     Harris-Foulkes estimate   =   -1962.09492839 Ry
     estimated scf accuracy    <       0.00000003 Ry

     The total energy is the sum of the following terms:

     one-electron contribution =  -10571.15639340 Ry
     hartree contribution      =    5352.94204554 Ry
     xc contribution           =    -542.19644853 Ry
     ewald contribution        =    3798.35871026 Ry
     electric field correction =       0.00005530 Ry
     smearing contrib. (-TS)   =      -0.04289749 Ry

     convergence has been achieved in   9 iterations

 BEEF-vdW xc energy contributions
           1 :   -476.214667999468
           2 :    435.591313936183
           3 :   -366.791423482795
           4 :    289.059136713388
           5 :   -220.547795307255
           6 :    171.957107321785
           7 :   -144.200884771013
           8 :    130.548327771321
           9 :   -121.658020352922
          10 :    110.692245080413
          11 :   -96.0093064933471
          12 :    80.4948998207520
          13 :   -68.5268659043871
          14 :    62.6955594140945
          15 :   -62.2165599847430
          16 :    63.6966235066984
          17 :   -63.4430456944347
          18 :    59.6903878645362
          19 :   -53.3960915436988
          20 :    47.2795536121003
          21 :   -43.8865189179501
          22 :    43.9705407186299
          23 :   -46.1655840742333
          24 :    48.0221471360365
          25 :   -47.6261271683530
          26 :    44.7281125504766
          27 :   -40.7253057674067
          28 :    37.6149383364983
          29 :   -36.6760922942462
          30 :    37.7340482183116
          31 :   -41.8184473334243
          32 :   -30.3733027971998

     Forces acting on atoms (Ry/au):

     negative rho (up, down):  5.579E-04 0.000E+00
     atom    1 type  1   force =     0.00036145    0.00020875    0.00092317
     atom    2 type  1   force =    -0.00036038    0.00020907    0.00092426
     atom    3 type  1   force =     0.00000032   -0.00041723    0.00092399
     atom    4 type  1   force =     0.00000014   -0.00000070    0.00348907
     atom    5 type  1   force =     0.00000053    0.00339995   -0.00457416
     atom    6 type  1   force =     0.00000031   -0.00000124    0.00326408
     atom    7 type  1   force =    -0.00294463   -0.00169947   -0.00456925
     atom    8 type  1   force =     0.00294457   -0.00169988   -0.00457441
     atom    9 type  1   force =     0.00000176   -0.00000075    0.00131649
     atom   10 type  1   force =    -0.00000242    0.00105195    0.00105881
     atom   11 type  1   force =     0.00090948   -0.00052571    0.00105918
     atom   12 type  1   force =    -0.00091249   -0.00052455    0.00105815
     atom   13 type  2   force =     0.00000035   -0.00000018   -0.00038498
     atom   14 type  3   force =     0.00000101   -0.00000002    0.00008559

     Total force =     0.002927     Total SCF correction =     0.000460
     SCF correction compared to forces is large: reduce conv_thr to get better values

     entering subroutine stress ...

     negative rho (up, down):  5.579E-04 0.000E+00
          total   stress  (Ry/bohr**3)                   (kbar)     P=   -0.19
   0.00000824   0.00000000   0.00000000          1.21      0.00      0.00
   0.00000000   0.00000824  -0.00000000          0.00      1.21     -0.00
   0.00000000  -0.00000000  -0.00002037          0.00     -0.00     -3.00

     bfgs converged in  19 scf cycles and  18 bfgs steps
     (criteria: energy <  1.0E+00, force <  1.9E-03)

     End of BFGS Geometry Optimization

     Final energy   =   -1962.0949283211 Ry
Begin final coordinates

ATOMIC_POSITIONS (crystal)
Sn1      0.166666667   0.166666667   0.392271209    0   0   0
Sn1      0.666666667   0.166666667   0.392271209    0   0   0
Sn1      0.166666667   0.666666667   0.392271209    0   0   0
Sn1      0.666666667   0.666666667   0.392271209    0   0   0
Sn1      0.833333333   0.333333333   0.500000000    0   0   0
Sn1      0.333333333   0.333333333   0.500000000    0   0   0
Sn1      0.833333333   0.833333333   0.500000000    0   0   0
Sn1      0.333333333   0.833333333   0.500000000    0   0   0
Sn1     -0.000000545   0.000000741   0.605438459
Sn1      0.498978616   0.002043568   0.612687403
Sn1      0.002043709   0.498980767   0.612685711
Sn1      0.498977165   0.498973760   0.612687344
O1       0.333334751   0.333331322   0.675293428
H1       0.333334912   0.333331260   0.713654406
End final coordinates

     Writing output data file calc.save

     General routines

     Parallel routines

   This run was terminated on:   4:53:29  23Apr2018

   JOB DONE.