     Program PWSCF v.5.1rc2 (svn rev. 11289) starts on  3May2018 at 12:32:43

     Current dimensions of program PWSCF are:
     Max number of different atomic species (ntypx) = 10
     Max number of k-points (npk) =  40000
     Max angular momentum in pseudopotentials (lmaxx) =  3
     Presently stress not available with electric field

     IMPORTANT: XC functional enforced from input :
     Exchange-correlation      = BEEF-VDW ( 1  4 27 13 2)
     Any further DFT definition will be discarded
     Please, verify this is what you really want

     Subspace diagonalization in iterative solution of the eigenvalue problem:
     a serial algorithm will be used

     bravais-lattice index     =            0
     lattice parameter (alat)  =       1.8897  a.u.
     unit-cell volume          =    6024.3322 (a.u.)^3
     number of atoms/cell      =           13
     number of atomic types    =            2
     number of electrons       =       148.00
     number of Kohn-Sham states=           84
     kinetic-energy cutoff     =      36.7493  Ry
     charge density cutoff     =     367.4932  Ry
     convergence threshold     =      1.0E-05
     mixing beta               =       0.3000
     number of iterations used =           10  plain     mixing
     Exchange-correlation      = BEEF-VDW ( 1  4 27 13 2)
     nstep                     =           50

     celldm(1)=   1.889726  celldm(2)=   0.000000  celldm(3)=   0.000000
     celldm(4)=   0.000000  celldm(5)=   0.000000  celldm(6)=   0.000000

     crystal axes: (cart. coord. in units of alat)
               a(1) = (   6.393197   0.000000   0.000000 )
               a(2) = (   3.196599   5.536671   0.000000 )
               a(3) = (   0.000000   0.000000  25.220024 )

     reciprocal axes: (cart. coord. in units 2 pi/alat)
               b(1) = (  0.156416 -0.090307  0.000000 )
               b(2) = (  0.000000  0.180614  0.000000 )
               b(3) = (  0.000000  0.000000  0.039651 )

     PseudoPot. # 1 for Hf read from file:
     /u/if/mamunm/psp/gbrv1.5pbe/Hf.UPF
     MD5 check sum: 8ee9378dfe14276e333edf04c5e4aa26
     Pseudo is Ultrasoft + core correction, Zval = 12.0
     Generated by new atomic code, or converted to UPF format
     Using radial grid of  921 points,  8 beta functions with:
                l(1) =   0
                l(2) =   0
                l(3) =   0
                l(4) =   1
                l(5) =   1
                l(6) =   2
                l(7) =   2
                l(8) =   3
     Q(r) pseudized with  6 coefficients,  rinner =    1.200   1.200   1.200
                                                       1.200   1.200   1.200
                                                       1.200

     PseudoPot. # 2 for C  read from file:
     /u/if/mamunm/psp/gbrv1.5pbe/C.UPF
     MD5 check sum: d1aef80898a10debaa0f26306b886e00
     Pseudo is Ultrasoft + core correction, Zval =  4.0
     Generated by new atomic code, or converted to UPF format
     Using radial grid of  721 points,  4 beta functions with:
                l(1) =   0
                l(2) =   0
                l(3) =   1
                l(4) =   1
     Q(r) pseudized with  8 coefficients,  rinner =    1.100   1.100   1.100

     vdW kernel table read from file vdW_kernel_table
     MD5 check sum: 095c7af220d748ca6e76c0b4c6cfb241

     atomic species   valence    mass     pseudopotential
        Hf1           12.00   178.49000     Hf( 1.00)
        C1             4.00    12.01100     C ( 1.00)

     No symmetry found

   Cartesian axes

     site n.     atom                  positions (alat units)
         1           Hf1 tau(   1) = (   1.5982993   0.9227785  10.0000000  )
         2           Hf1 tau(   2) = (   4.7948978   0.9227785  10.0000000  )
         3           Hf1 tau(   3) = (   3.1965986   3.6911141  10.0000000  )
         4           Hf1 tau(   4) = (   6.3931971   3.6911141  10.0000000  )
         5           Hf1 tau(   5) = (   6.3931971   1.8455570  12.6100118  )
         6           Hf1 tau(   6) = (   3.1965986   1.8455570  12.6100118  )
         7           Hf1 tau(   7) = (   7.9914964   4.6138926  12.6100118  )
         8           Hf1 tau(   8) = (   4.7948978   4.6138926  12.6100118  )
         9           Hf1 tau(   9) = (   0.0000000   0.0000000  15.2200236  )
        10           Hf1 tau(  10) = (   3.1965986   0.0000000  15.2200236  )
        11           Hf1 tau(  11) = (   1.5982993   2.7683356  15.2200236  )
        12           Hf1 tau(  12) = (   4.7948978   2.7683356  15.2200236  )
        13           C1  tau(  13) = (   1.5982993   0.9227785  16.8515236  )

     number of k points=    20  Fermi-Dirac smearing, width (Ry)=  0.0110
                       cart. coord. in units 2pi/alat
        k(    1) = (   0.0000000   0.0000000   0.0000000), wk =   0.0555556
        k(    2) = (   0.0000000   0.0301023   0.0000000), wk =   0.1111111
        k(    3) = (   0.0000000   0.0602046   0.0000000), wk =   0.1111111
        k(    4) = (   0.0000000  -0.0903070   0.0000000), wk =   0.0555556
        k(    5) = (   0.0260694  -0.0150512   0.0000000), wk =   0.1111111
        k(    6) = (   0.0260694   0.0150512   0.0000000), wk =   0.1111111
        k(    7) = (   0.0260694   0.0451535   0.0000000), wk =   0.1111111
        k(    8) = (   0.0260694  -0.1053581   0.0000000), wk =   0.1111111
        k(    9) = (   0.0260694  -0.0752558   0.0000000), wk =   0.1111111
        k(   10) = (   0.0260694  -0.0451535   0.0000000), wk =   0.1111111
        k(   11) = (   0.0521388  -0.0301023   0.0000000), wk =   0.1111111
        k(   12) = (   0.0521388   0.0000000   0.0000000), wk =   0.1111111
        k(   13) = (   0.0521388   0.0301023   0.0000000), wk =   0.1111111
        k(   14) = (   0.0521388  -0.1204093   0.0000000), wk =   0.1111111
        k(   15) = (   0.0521388  -0.0903070   0.0000000), wk =   0.1111111
        k(   16) = (   0.0521388  -0.0602046   0.0000000), wk =   0.1111111
        k(   17) = (  -0.0782081   0.0451535   0.0000000), wk =   0.0555556
        k(   18) = (  -0.0782081   0.0752558   0.0000000), wk =   0.1111111
        k(   19) = (  -0.0782081   0.1053581   0.0000000), wk =   0.1111111
        k(   20) = (  -0.0782081  -0.0451535   0.0000000), wk =   0.0555556

     Largest allocated arrays     est. size (Mb)     dimensions
     Largest temporary arrays     est. size (Mb)     dimensions

     Check: negative/imaginary core charge=   -0.000003    0.000000

     Initial potential from superposition of free atoms
     Check: negative starting charge=   -1.301334

     starting charge  123.99994, renormalised to  148.00000

     negative rho (up, down):  1.553E+00 0.000E+00

     *
     * You are using vdW-DF for exchange-correlation in this calculation.
     * Please cite the following three references that made this development
     * possible:
     *
     *   M. Dion, H. Rydberg, E. Schroder, D. C. Langreth, and
     *   B. I. Lundqvist, Phys. Rev. Lett. 92, 246401 (2004).
     *
     *   T. Thonhauser, V. R. Cooper, S. Li, A. Puzder, P. Hyldgaard, and
     *   D. C. Langreth, Phys. Rev. B 76, 125112 (2007).
     *
     *   G. Roman-Perez and J. M. Soler, Phys. Rev. Lett. 103, 096102 (2009).
     *
     *
     * If you are using vdW-DF2, please also cite:
     *
     *   K. Lee, E. D. Murray, L. Kong, B. I. Lundqvist, and
     *   D. C. Langreth, Phys. Rev. B 82, 081101(R) (2010).
     *
     *
     * If you are calculating the stress with vdW-DF, please also cite:
     *
     *   R. Sabatini, E. Kucukbenli, B. Kolb, T. Thonhauser, and
     *   S. de Gironcoli, J. Phys.: Condens. Matter 24, 424209 (2012).
     *

     Carrying out vdW-DF run using the following parameters:

     Nqs =      20    Nr_points =    1024   r_max =   100.000
     q_mesh =
               0.00001000     0.04494208     0.09755937     0.15916263
               0.23128650     0.31572767     0.41458969     0.53033537
               0.66584808     0.82450364     1.01025438     1.22772762
               1.48234092     1.78043706     2.12944203     2.53805004
               3.01644009     3.57652955     4.23227104     5.00000000

     Gradients computed in reciprocal space

     Adding external electric field

     Computed dipole along edir(3) :
        Dipole               -6.2050 Ry au,        -15.7716 Debye
        Dipole field         -0.0129 Ry au

        Potential amp.        1.2029 Ry
        Total length         46.4675 bohr

     Starting wfc are  160 randomized atomic wfcs

     Self-consistent Calculation

     iteration #  1     ecut=    36.75 Ry     beta=0.30
     Davidson diagonalization with overlap
     ethr =  1.00E-02,  avg # of iterations =  9.1

[...]

     total energy              =   -1445.56427223 Ry
     Harris-Foulkes estimate   =   -1929.51619923 Ry
     estimated scf accuracy    <    1042.56445393 Ry

     iteration #  2     ecut=    36.75 Ry     beta=0.30
     Davidson diagonalization with overlap
     c_bands:  3 eigenvalues not converged
     c_bands:  5 eigenvalues not converged
     c_bands:  3 eigenvalues not converged
     ethr =  1.00E-02,  avg # of iterations = 21.4

[...]

     End of self-consistent calculation

          k = 0.0000 0.0000 0.0000 ( 22729 PWs)   bands (ev):

   -61.7385 -61.6416 -61.6087 -61.6066 -61.6065 -61.4155 -61.3903 -61.3900
   -61.2151 -61.1848 -61.1841 -61.1716 -30.3938 -30.3937 -30.3909 -30.3831
   -30.3481 -30.3481 -30.2807 -30.2026 -30.2024 -30.1996 -30.1744 -30.0264
   -30.0261 -30.0156 -29.9804 -29.9804 -29.9779 -29.9142 -29.9076 -29.9075
   -29.8516 -29.8516 -29.8384 -29.8384 -29.8077 -29.6684 -29.6676 -29.6674
   -29.6277 -29.6276 -29.6274 -29.5751 -29.5674 -29.5670 -29.4522 -29.4521
    -7.5598  -5.3783  -3.9470  -2.7694  -2.0615  -2.0615  -1.9584  -1.8099
    -1.8098  -1.7638  -1.4424  -1.4423  -1.3366  -0.7137  -0.7054  -0.7053
    -0.0741  -0.0740   0.0388   0.6431   0.6431   0.9438   1.0431   1.3248
     1.4379   1.4901   1.4902   1.6173   1.6308   1.6309   1.8472   2.1368
     2.1369   2.2720   2.3080   2.3081

[...]

          k =-0.0782 0.0452 0.0000 ( 22668 PWs)   bands (ev):

[...]

     the Fermi energy is     0.9920 ev

!    total energy              =   -1938.07250336 Ry
     Harris-Foulkes estimate   =   -1938.07255570 Ry
     estimated scf accuracy    <       0.00000594 Ry

     The total energy is the sum of the following terms:

     one-electron contribution =   -8486.30367225 Ry
     hartree contribution      =    4225.80234423 Ry
     xc contribution           =    -931.10552933 Ry
     ewald contribution        =    3253.64795601 Ry
     electric field correction =       0.00030382 Ry
     smearing contrib. (-TS)   =      -0.11390584 Ry

     convergence has been achieved in  30 iterations

 BEEF-vdW xc energy contributions
           1 :   -841.882942850356
           2 :    782.471730979756
           3 :   -677.183533792986
           4 :    547.780660140930
           5 :   -416.787597035478
           6 :    301.156131303910
           7 :   -209.492347129194
           8 :    142.970161996762
           9 :   -98.3740329220548
          10 :    71.0717287025820
          11 :   -56.5760232367015
          12 :    50.6345763153008
          13 :   -48.8158145359045
          14 :    46.5778290478993
          15 :   -40.1771002562322
          16 :    27.9135750608521
          17 :   -10.8587688991978
          18 :   -7.55328728265704
          19 :    22.9832916814074
          20 :   -32.0000233400109
          21 :    33.3530023362999
          22 :   -28.1727771189721
          23 :    19.1716728469228
          24 :   -9.43336687582041
          25 :    1.44675702653160
          26 :    3.27071743013778
          27 :   -4.07942697332749
          28 :    1.01115628984462
          29 :    5.27252382449501
          30 :   -13.3897817774790
          31 :   -60.5858054166403
          32 :   -43.5756697526684

     Forces acting on atoms (Ry/au):

     negative rho (up, down):  1.380E+00 0.000E+00
     atom    1 type  1   force =     0.00004929    0.00002399    0.02209615
     atom    2 type  1   force =    -0.00005918    0.00117287    0.02502775
     atom    3 type  1   force =     0.00098460   -0.00063183    0.02502353
     atom    4 type  1   force =    -0.00099889   -0.00057770    0.02488808
     atom    5 type  1   force =    -0.00468667    0.00271963   -0.00580323
     atom    6 type  1   force =     0.00467519    0.00269254   -0.00579922
     atom    7 type  1   force =    -0.00001915   -0.00000527   -0.02234698
     atom    8 type  1   force =     0.00001756   -0.00541587   -0.00580508
     atom    9 type  1   force =     0.04534325    0.02618734    0.04210296
     atom   10 type  1   force =    -0.04532977    0.02623124    0.04202250
     atom   11 type  1   force =     0.00004649   -0.05237581    0.04201923
     atom   12 type  1   force =    -0.00003271   -0.00002765   -0.01613028
     atom   13 type  2   force =     0.00001000    0.00000652   -0.16729542

     Total force =     0.204402     Total SCF correction =     0.002802

     entering subroutine stress ...

     negative rho (up, down):  1.380E+00 0.000E+00
          total   stress  (Ry/bohr**3)                   (kbar)     P=  -28.92
  -0.00017483  -0.00000001  -0.00000000        -25.72     -0.00     -0.00
  -0.00000001  -0.00017482   0.00000000         -0.00    -25.72      0.00
  -0.00000000   0.00000000  -0.00024017         -0.00      0.00    -35.33

     BFGS Geometry Optimization

     number of scf cycles    =   1
     number of bfgs steps    =   0

     energy   new            =   -1938.0725033616 Ry

     new trust radius        =       0.1672954181 bohr
     new conv_thr            =       0.0000099958 Ry

ATOMIC_POSITIONS (crystal)
Hf1      0.166666667   0.166666667   0.396510335    0   0   0
Hf1      0.666666667   0.166666667   0.396510335    0   0   0
Hf1      0.166666667   0.666666667   0.396510335    0   0   0
Hf1      0.666666667   0.666666667   0.396510335    0   0   0
Hf1      0.833333333   0.333333333   0.500000000    0   0   0
Hf1      0.333333333   0.333333333   0.500000000    0   0   0
Hf1      0.833333333   0.833333333   0.500000000    0   0   0
Hf1      0.333333333   0.833333333   0.500000000    0   0   0
Hf1      0.002501697   0.002502902   0.604373087
Hf1      0.494994419   0.002507098   0.604371399
Hf1      0.002506804   0.494994088   0.604371330
Hf1      0.499998614   0.499997357   0.603151213
C1       0.166667182   0.166667290   0.664670063

     Writing output data file calc.save
     Check: negative starting charge=   -1.301334
     NEW-OLD atomic charge density approx. for the potential

     Check: negative/imaginary core charge=   -0.000003    0.000000
     Check: negative starting charge=   -1.299820

[...]

     energy   old            =   -1938.0725033616 Ry
     energy   new            =   -1938.1125513808 Ry

     CASE: energy  _new < energy  _old

     WARNING: bfgs curvature condition failed, Theta= 0.891
     new trust radius        =       0.2509431271 bohr
     new conv_thr            =       0.0000001000 Ry

[...]

     iteration #  1     ecut=    36.75 Ry     beta=0.30
     Davidson diagonalization with overlap
     c_bands:  1 eigenvalues not converged
     c_bands:  1 eigenvalues not converged
     ethr =  1.00E-06,  avg # of iterations = 16.6

[...]

     Total force =     0.006037     Total SCF correction =     0.000709
     SCF correction compared to forces is large: reduce conv_thr to get better values

[...]

     Total force =     0.002863     Total SCF correction =     0.000227

[...]

     number of scf cycles    =  16
     number of bfgs steps    =  15

     energy   old            =   -1938.2084358661 Ry
     energy   new            =   -1938.2084636033 Ry

     CASE: energy  _new < energy  _old

     new trust radius        =       0.0131607351 bohr
     new conv_thr            =       0.0000001000 Ry

ATOMIC_POSITIONS (crystal)
Hf1      0.166666667   0.166666667   0.396510335    0   0   0
Hf1      0.666666667   0.166666667   0.396510335    0   0   0
Hf1      0.166666667   0.666666667   0.396510335    0   0   0
Hf1      0.666666667   0.666666667   0.396510335    0   0   0
Hf1      0.833333333   0.333333333   0.500000000    0   0   0
Hf1      0.333333333   0.333333333   0.500000000    0   0   0
Hf1      0.833333333   0.833333333   0.500000000    0   0   0
Hf1      0.333333333   0.833333333   0.500000000    0   0   0
Hf1      0.000249398   0.000249366   0.601265848
Hf1      0.499499550   0.000231463   0.601263803
Hf1      0.000231530   0.499499464   0.601263831
Hf1      0.500006935   0.500006889   0.596396715
C1       0.166672347   0.166672102   0.639764051

     Writing output data file calc.save
     Check: negative starting charge=   -1.297606
     NEW-OLD atomic charge density approx. for the potential

     Check: negative/imaginary core charge=   -0.000003    0.000000
     Check: negative starting charge=   -1.297897

[...]

     Self-consistent Calculation

[...]

     total energy              =   -1938.20848196 Ry
     Harris-Foulkes estimate   =   -1938.20848196 Ry
     estimated scf accuracy    <       0.00000016 Ry

     iteration # 10     ecut=    36.75 Ry     beta=0.30
     Davidson diagonalization with overlap
     ethr =  1.10E-10,  avg # of iterations =  2.7

[...]

     negative rho (up, down):  1.376E+00 0.000E+00

     Adding external electric field

     Computed dipole along edir(3) :
        Dipole               -0.1741 Ry au,         -0.4425 Debye
        Dipole field         -0.0004 Ry au

        Potential amp.        0.0337 Ry
        Total length         46.4675 bohr

     End of self-consistent calculation

[...]

          k = 0.0521-0.0602 0.0000 ( 22643 PWs)   bands (ev):

[...]

          k =-0.0782-0.0452 0.0000 ( 22668 PWs)   bands (ev):

   -61.4489 -61.4425 -61.4291 -61.4254 -61.3206 -60.9789 -60.9092 -60.8996
   -60.8918 -60.8241 -60.8156 -60.8069 -30.1123 -30.1089 -30.0576 -30.0502
   -30.0033 -29.9981 -29.9901 -29.9466 -29.9435 -29.9181 -29.9094 -29.8962
   -29.8387 -29.7366 -29.7332 -29.6720 -29.6647 -29.6345 -29.6072 -29.5286
   -29.5108 -29.5044 -29.4549 -29.4057 -29.3984 -29.3877 -29.3778 -29.3624
   -29.3509 -29.3179 -29.3084 -29.2912 -29.2739 -29.2211 -29.2190 -29.1091
    -7.8362  -3.7705  -3.5951  -2.6325  -2.1898  -1.5863  -1.5597  -1.3034
    -1.1264  -0.9938  -0.9557  -0.5712  -0.2694  -0.1234   0.1007   0.1365
     0.2321   0.3808   0.4027   0.4226   0.6253   0.6599   0.7760   0.8325
     0.8872   0.9109   1.0661   1.1248   1.1462   1.2677   1.3764   1.4558
     1.5214   1.8043   1.9716   2.1292

     the Fermi energy is     1.1766 ev

!    total energy              =   -1938.20848195 Ry
     Harris-Foulkes estimate   =   -1938.20848160 Ry
     estimated scf accuracy    <       0.00000006 Ry

     The total energy is the sum of the following terms:

     one-electron contribution =   -8687.86664288 Ry
     hartree contribution      =    4328.17428922 Ry
     xc contribution           =    -931.71660071 Ry
     ewald contribution        =    3353.30665837 Ry
     electric field correction =       0.00006322 Ry
     smearing contrib. (-TS)   =      -0.10624917 Ry

     convergence has been achieved in  10 iterations

 BEEF-vdW xc energy contributions
           1 :   -842.487497577952
           2 :    783.208139291176
           3 :   -678.037341000929
           4 :    548.579541236240
           5 :   -417.313027421380
           6 :    301.278160369911
           7 :   -209.239699935114
           8 :    142.503644884191
           9 :   -97.8908974400561
          10 :    70.7045811753062
          11 :   -56.3430960089291
          12 :    50.4625534482091
          13 :   -48.6135441853498
          14 :    46.3106213347510
          15 :   -39.8930989475800
          16 :    27.7072195894674
          17 :   -10.7992677602476
          18 :   -7.47493385082419
          19 :    22.8510905092519
          20 :   -31.9173690177113
          21 :    33.3762863636375
          22 :   -28.2814515802608
          23 :    19.2934928644038
          24 :   -9.50236837353964
          25 :    1.44809933626254
          26 :    3.30097259061517
          27 :   -4.09335303007106
          28 :   0.990797323589277
          29 :    5.30473588511086
          30 :   -13.3992115015503
          31 :   -60.6263533626063
          32 :   -43.6374780929254

     Forces acting on atoms (Ry/au):

     negative rho (up, down):  1.376E+00 0.000E+00
     atom    1 type  1   force =    -0.00000135   -0.00000078    0.02024379
     atom    2 type  1   force =     0.00000840   -0.00035983    0.02347259
     atom    3 type  1   force =    -0.00030743    0.00018719    0.02347259
     atom    4 type  1   force =     0.00032141    0.00018556    0.02348033
     atom    5 type  1   force =    -0.00835525    0.00483995   -0.01947213
     atom    6 type  1   force =     0.00836862    0.00483163   -0.01946168
     atom    7 type  1   force =     0.00000738    0.00000422   -0.03224380
     atom    8 type  1   force =     0.00001390   -0.00965585   -0.01947218
     atom    9 type  1   force =     0.00037910    0.00021884    0.00021568
     atom   10 type  1   force =    -0.00039563    0.00022897    0.00019561
     atom   11 type  1   force =     0.00000051   -0.00045724    0.00019557
     atom   12 type  1   force =    -0.00001951   -0.00001122   -0.00010384
     atom   13 type  2   force =    -0.00002015   -0.00001144   -0.00052249

     Total force =     0.001009     Total SCF correction =     0.000641
     SCF correction compared to forces is large: reduce conv_thr to get better values

     entering subroutine stress ...

     negative rho (up, down):  1.376E+00 0.000E+00
          total   stress  (Ry/bohr**3)                   (kbar)     P=  -13.70
  -0.00008978   0.00000000  -0.00000000        -13.21      0.00     -0.00
   0.00000000  -0.00008978  -0.00000000          0.00    -13.21     -0.00
  -0.00000000  -0.00000000  -0.00009982         -0.00     -0.00    -14.68

     bfgs converged in  17 scf cycles and  16 bfgs steps
     (criteria: energy <  1.0E+00, force <  1.9E-03)

     End of BFGS Geometry Optimization

     Final energy   =   -1938.2084819488 Ry
Begin final coordinates

ATOMIC_POSITIONS (crystal)
Hf1      0.166666667   0.166666667   0.396510335    0   0   0
Hf1      0.666666667   0.166666667   0.396510335    0   0   0
Hf1      0.166666667   0.666666667   0.396510335    0   0   0
Hf1      0.666666667   0.666666667   0.396510335    0   0   0
Hf1      0.833333333   0.333333333   0.500000000    0   0   0
Hf1      0.333333333   0.333333333   0.500000000    0   0   0
Hf1      0.833333333   0.833333333   0.500000000    0   0   0
Hf1      0.333333333   0.833333333   0.500000000    0   0   0
Hf1      0.000249398   0.000249366   0.601265848
Hf1      0.499499550   0.000231463   0.601263803
Hf1      0.000231530   0.499499464   0.601263831
Hf1      0.500006935   0.500006889   0.596396715
C1       0.166672347   0.166672102   0.639764051
End final coordinates

     Writing output data file calc.save

     General routines

     Parallel routines

   This run was terminated on:  16:35:49   3May2018

   JOB DONE.
Job  /afs/slac/g/suncat/bin/suncat-tsmpirun -x LD_LIBRARY_PATH -wdir /scratch/qe765442_8aw99 pw.x -npool 4 -in pw.inp

TID   HOST_NAME   COMMAND_LINE            STATUS            TERMINATION_TIME
00000 suncat0034 pw.x -npool 4 -i  Done                     05/03/2018 16:35:49
00001 suncat0034 pw.x -npool 4 -i  Done                     05/03/2018 16:35:49
00002 suncat0034 pw.x -npool 4 -i  Done                     05/03/2018 16:35:49
00003 suncat0034 pw.x -npool 4 -i  Done                     05/03/2018 16:35:49
00004 suncat0034 pw.x -npool 4 -i  Done                     05/03/2018 16:35:49
00005 suncat0034 pw.x -npool 4 -i  Done                     05/03/2018 16:35:49
00006 suncat0034 pw.x -npool 4 -i  Done                     05/03/2018 16:35:49
00007 suncat0034 pw.x -npool 4 -i  Done                     05/03/2018 16:35:49
00008 suncat0022 pw.x -npool 4 -i  Done                     05/03/2018 16:35:49
00009 suncat0022 pw.x -npool 4 -i  Done                     05/03/2018 16:35:49
00010 suncat0022 pw.x -npool 4 -i  Done                     05/03/2018 16:35:49
00011 suncat0022 pw.x -npool 4 -i  Done                     05/03/2018 16:35:49
00012 suncat0022 pw.x -npool 4 -i  Done                     05/03/2018 16:35:49
00013 suncat0022 pw.x -npool 4 -i  Done                     05/03/2018 16:35:49
00014 suncat0022 pw.x -npool 4 -i  Done                     05/03/2018 16:35:49
00015 suncat0022 pw.x -npool 4 -i  Done                     05/03/2018 16:35:49
00016 suncat0239 pw.x -npool 4 -i  Done                     05/03/2018 16:35:49
00017 suncat0239 pw.x -npool 4 -i  Done                     05/03/2018 16:35:49
00018 suncat0239 pw.x -npool 4 -i  Done                     05/03/2018 16:35:49
00019 suncat0239 pw.x -npool 4 -i  Done                     05/03/2018 16:35:49
00020 suncat0239 pw.x -npool 4 -i  Done                     05/03/2018 16:35:49
00021 suncat0239 pw.x -npool 4 -i  Done                     05/03/2018 16:35:49
00022 suncat0239 pw.x -npool 4 -i  Done                     05/03/2018 16:35:49
00023 suncat0239 pw.x -npool 4 -i  Done                     05/03/2018 16:35:49
00024 suncat0221 pw.x -npool 4 -i  Done                     05/03/2018 16:35:49
00025 suncat0221 pw.x -npool 4 -i  Done                     05/03/2018 16:35:49
00026 suncat0221 pw.x -npool 4 -i  Done                     05/03/2018 16:35:49
00027 suncat0221 pw.x -npool 4 -i  Done                     05/03/2018 16:35:49
00028 suncat0221 pw.x -npool 4 -i  Done                     05/03/2018 16:35:49
00029 suncat0221 pw.x -npool 4 -i  Done                     05/03/2018 16:35:49
00030 suncat0221 pw.x -npool 4 -i  Done                     05/03/2018 16:35:49
00031 suncat0221 pw.x -npool 4 -i  Done                     05/03/2018 16:35:49