     Program PWSCF v.5.1rc2 (svn rev. 11289) starts on 19Jan2018 at 21: 2:32

     Current dimensions of program PWSCF are:
     Max number of different atomic species (ntypx) = 10
     Max number of k-points (npk) =  40000
     Max angular momentum in pseudopotentials (lmaxx) =  3
     Presently stress not available with electric field

     IMPORTANT: XC functional enforced from input :
     Exchange-correlation      = BEEF-VDW ( 1  4 27 13 2)
     Any further DFT definition will be discarded
     Please, verify this is what you really want

     Subspace diagonalization in iterative solution of the eigenvalue problem:
     a serial algorithm will be used

     bravais-lattice index     =            0
     lattice parameter (alat)  =       1.8897  a.u.
     unit-cell volume          =    4204.8134 (a.u.)^3
     number of atoms/cell      =           13
     number of atomic types    =            2
     number of electrons       =       184.00
     number of Kohn-Sham states=          102
     kinetic-energy cutoff     =      36.7493  Ry
     charge density cutoff     =     367.4932  Ry
     convergence threshold     =      1.0E-05
     mixing beta               =       0.3000
     number of iterations used =           10  plain     mixing
     Exchange-correlation      = BEEF-VDW ( 1  4 27 13 2)
     nstep                     =           50

     celldm(1)=   1.889726  celldm(2)=   0.000000  celldm(3)=   0.000000
     celldm(4)=   0.000000  celldm(5)=   0.000000  celldm(6)=   0.000000

     crystal axes: (cart. coord. in units of alat)
               a(1) = (   5.426750   0.000000   0.000000 )
               a(2) = (   2.713375   4.699703   0.000000 )
               a(3) = (   0.000000   0.000000  24.430923 )

     reciprocal axes: (cart. coord. in units 2 pi/alat)
               b(1) = (  0.184272 -0.106390  0.000000 )
               b(2) = (  0.000000  0.212779  0.000000 )
               b(3) = (  0.000000  0.000000  0.040932 )

     PseudoPot. # 1 for Rh read from file:
     /afs/slac.stanford.edu/u/if/mamunm/psp/gbrv1.5pbe/Rh.UPF
     MD5 check sum: 761627e959a2e3a1f56b0b5fe687810e
     Pseudo is Ultrasoft + core correction, Zval = 15.0
     Generated by new atomic code, or converted to UPF format
     Using radial grid of  969 points,  7 beta functions with:
                l(1) =   0
                l(2) =   0
                l(3) =   1
                l(4) =   1
                l(5) =   2
                l(6) =   2
                l(7) =   2
     Q(r) pseudized with  8 coefficients,  rinner =    1.200   1.200   1.200
                                                       1.200   1.200

     PseudoPot. # 2 for C  read from file:
     /afs/slac.stanford.edu/u/if/mamunm/psp/gbrv1.5pbe/C.UPF
     MD5 check sum: d1aef80898a10debaa0f26306b886e00
     Pseudo is Ultrasoft + core correction, Zval =  4.0
     Generated by new atomic code, or converted to UPF format
     Using radial grid of  721 points,  4 beta functions with:
                l(1) =   0
                l(2) =   0
                l(3) =   1
                l(4) =   1
     Q(r) pseudized with  8 coefficients,  rinner =    1.100   1.100   1.100

     vdW kernel table read from file vdW_kernel_table
     MD5 check sum: 095c7af220d748ca6e76c0b4c6cfb241

     atomic species   valence    mass     pseudopotential
        Rh1           15.00   102.90550     Rh( 1.00)
        C1             4.00    12.01100     C ( 1.00)

     No symmetry found

   Cartesian axes

     site n.     atom                  positions (alat units)
         1           Rh1 tau(   1) = (   1.3566875   0.7832839  10.0000000  )
         2           Rh1 tau(   2) = (   4.0700625   0.7832839  10.0000000  )
         3           Rh1 tau(   3) = (   2.7133750   3.1331356  10.0000000  )
         4           Rh1 tau(   4) = (   5.4267500   3.1331356  10.0000000  )
         5           Rh1 tau(   5) = (   5.4267500   1.5665678  12.2154614  )
         6           Rh1 tau(   6) = (   2.7133750   1.5665678  12.2154614  )
         7           Rh1 tau(   7) = (   6.7834375   3.9164194  12.2154614  )
         8           Rh1 tau(   8) = (   4.0700625   3.9164194  12.2154614  )
         9           Rh1 tau(   9) = (   0.0000000   0.0000000  14.4309228  )
        10           Rh1 tau(  10) = (   2.7133750   0.0000000  14.4309228  )
        11           Rh1 tau(  11) = (   1.3566875   2.3498517  14.4309228  )
        12           Rh1 tau(  12) = (   4.0700625   2.3498517  14.4309228  )
        13           C1  tau(  13) = (   2.7133750   1.5665678  16.6109228  )

     number of k points=    20  Fermi-Dirac smearing, width (Ry)=  0.0110
                       cart. coord. in units 2pi/alat
        k(    1) = (   0.0000000   0.0000000   0.0000000), wk =   0.0555556
        k(    2) = (   0.0000000   0.0354632   0.0000000), wk =   0.1111111
        k(    3) = (   0.0000000   0.0709265   0.0000000), wk =   0.1111111
        k(    4) = (   0.0000000  -0.1063897   0.0000000), wk =   0.0555556
        k(    5) = (   0.0307121  -0.0177316   0.0000000), wk =   0.1111111
        k(    6) = (   0.0307121   0.0177316   0.0000000), wk =   0.1111111
        k(    7) = (   0.0307121   0.0531948   0.0000000), wk =   0.1111111
        k(    8) = (   0.0307121  -0.1241213   0.0000000), wk =   0.1111111
        k(    9) = (   0.0307121  -0.0886581   0.0000000), wk =   0.1111111
        k(   10) = (   0.0307121  -0.0531948   0.0000000), wk =   0.1111111
        k(   11) = (   0.0614241  -0.0354632   0.0000000), wk =   0.1111111
        k(   12) = (   0.0614241   0.0000000   0.0000000), wk =   0.1111111
        k(   13) = (   0.0614241   0.0354632   0.0000000), wk =   0.1111111
        k(   14) = (   0.0614241  -0.1418529   0.0000000), wk =   0.1111111
        k(   15) = (   0.0614241  -0.1063897   0.0000000), wk =   0.1111111
        k(   16) = (   0.0614241  -0.0709265   0.0000000), wk =   0.1111111
        k(   17) = (  -0.0921362   0.0531948   0.0000000), wk =   0.0555556
        k(   18) = (  -0.0921362   0.0886581   0.0000000), wk =   0.1111111
        k(   19) = (  -0.0921362   0.1241213   0.0000000), wk =   0.1111111
        k(   20) = (  -0.0921362  -0.0531948   0.0000000), wk =   0.0555556

     Largest allocated arrays     est. size (Mb)     dimensions
     Largest temporary arrays     est. size (Mb)     dimensions

     Initial potential from superposition of free atoms
     Check: negative starting charge=   -0.652817

     starting charge  177.99878, renormalised to  184.00000

     negative rho (up, down):  6.748E-01 0.000E+00

     *
     * You are using vdW-DF for exchange-correlation in this calculation.
     * Please cite the following three references that made this development
     * possible:
     *
     *   M. Dion, H. Rydberg, E. Schroder, D. C. Langreth, and
     *   B. I. Lundqvist, Phys. Rev. Lett. 92, 246401 (2004).
     *
     *   T. Thonhauser, V. R. Cooper, S. Li, A. Puzder, P. Hyldgaard, and
     *   D. C. Langreth, Phys. Rev. B 76, 125112 (2007).
     *
     *   G. Roman-Perez and J. M. Soler, Phys. Rev. Lett. 103, 096102 (2009).
     *
     *
     * If you are using vdW-DF2, please also cite:
     *
     *   K. Lee, E. D. Murray, L. Kong, B. I. Lundqvist, and
     *   D. C. Langreth, Phys. Rev. B 82, 081101(R) (2010).
     *
     *
     * If you are calculating the stress with vdW-DF, please also cite:
     *
     *   R. Sabatini, E. Kucukbenli, B. Kolb, T. Thonhauser, and
     *   S. de Gironcoli, J. Phys.: Condens. Matter 24, 424209 (2012).
     *

     Carrying out vdW-DF run using the following parameters:

     Nqs =      20    Nr_points =    1024   r_max =   100.000
     q_mesh =
               0.00001000     0.04494208     0.09755937     0.15916263
               0.23128650     0.31572767     0.41458969     0.53033537
               0.66584808     0.82450364     1.01025438     1.22772762
               1.48234092     1.78043706     2.12944203     2.53805004
               3.01644009     3.57652955     4.23227104     5.00000000

     Gradients computed in reciprocal space

     Adding external electric field

     Computed dipole along edir(3) :
        Dipole               -1.1198 Ry au,         -2.8463 Debye
        Dipole field         -0.0033 Ry au

        Potential amp.        0.3013 Ry
        Total length         45.0136 bohr

     Starting wfc are  148 randomized atomic wfcs

     Self-consistent Calculation

     iteration #  1     ecut=    36.75 Ry     beta=0.30
     Davidson diagonalization with overlap
     ethr =  1.00E-02,  avg # of iterations =  2.0

[...]

     total energy              =   -2053.25823999 Ry
     Harris-Foulkes estimate   =   -2078.92586159 Ry
     estimated scf accuracy    <      53.17321688 Ry

[...]

     End of self-consistent calculation

          k = 0.0000 0.0000 0.0000 ( 15785 PWs)   bands (ev):

   -45.5641 -45.5579 -45.5578 -45.4309 -45.3891 -45.3688 -45.3686 -45.2262
   -45.1943 -45.1942 -45.1766 -45.1765 -45.1488 -45.0932 -45.0868 -45.0867
   -45.0422 -45.0422 -44.8822 -44.8821 -44.8669 -44.8384 -44.7836 -44.7835
   -44.7683 -44.7681 -44.7645 -44.7382 -44.7222 -44.7221 -44.6960 -44.6771
   -44.6624 -44.6621 -44.6492 -44.6492  -7.1042  -5.1765  -3.9672  -3.9671
    -3.9670  -3.9076  -3.7610  -3.6745  -3.6744  -3.6710  -3.4595  -3.4595
    -3.4448  -3.1535  -3.1442  -3.1442  -2.0236  -2.0223  -2.0223  -1.5877
    -1.5695  -1.5694  -1.3617  -1.2698  -1.2698  -0.9694  -0.9694  -0.8765
    -0.8765  -0.8570  -0.8123  -0.7406  -0.7406  -0.2211  -0.2211  -0.0767
     0.5296   0.5296   0.5312   0.5800   0.6249   0.6250   0.7573   0.7574
     1.1686   1.1686   1.2821   1.3306   1.3307   1.7149   1.7150   1.7189
     1.7239   1.8483   1.8483   2.0931   2.0931   2.1098   2.1960   2.3842
     2.4070   2.4070   2.4819   2.4820   2.4871   2.5131

[...]

          k =-0.0921 0.0532 0.0000 ( 15852 PWs)   bands (ev):

[...]

     the Fermi energy is     1.4784 ev

!    total energy              =   -2077.60607982 Ry
     Harris-Foulkes estimate   =   -2077.60607433 Ry
     estimated scf accuracy    <       0.00000268 Ry

     The total energy is the sum of the following terms:

     one-electron contribution =  -19292.58318047 Ry
     hartree contribution      =    9687.65239493 Ry
     xc contribution           =    -375.24275343 Ry
     ewald contribution        =    7902.69424566 Ry
     electric field correction =       0.00018935 Ry
     smearing contrib. (-TS)   =      -0.12697586 Ry

     convergence has been achieved in  24 iterations

 BEEF-vdW xc energy contributions
           1 :   -326.714690341271
           2 :    299.960401487552
           3 :   -253.730920268721
           4 :    199.551505438328
           5 :   -149.000845199091
           6 :    110.146108375660
           7 :   -85.7102542698290
           8 :    73.3889209393107
           9 :   -67.8929987076609
          10 :    63.6731306176275
          11 :   -57.1411876051720
          12 :    47.5775965722015
          13 :   -36.6087747610475
          14 :    26.7820377597781
          15 :   -20.0549721430884
          16 :    16.8864304520782
          17 :   -16.2263013348592
          18 :    16.2472879662136
[...]

     Program PWSCF v.5.1rc2 (svn rev. 11289) starts on 19Jan2018 at 21:23:28

[...]

   This run was terminated on:  22: 1:59  19Jan2018

[...]

     Program PWSCF v.5.1rc2 (svn rev. 11289) starts on 19Jan2018 at 22: 2: 5

[...]

     Total force =     0.201428     Total SCF correction =     0.004159

[...]

     Total force =     0.052181     Total SCF correction =     0.009695
     SCF correction compared to forces is large: reduce conv_thr to get better values

[...]

   This run was terminated on:   0:32: 7  20Jan2018

[...]

     Program PWSCF v.5.1rc2 (svn rev. 11289) starts on 20Jan2018 at  0:32:12

     Current dimensions of program PWSCF are:
     Max number of different atomic species (ntypx) = 10
     Max number of k-points (npk) =  40000
     Max angular momentum in pseudopotentials (lmaxx) =  3
     Presently stress not available with electric field

     IMPORTANT: XC functional enforced from input :
     Exchange-correlation      = BEEF-VDW ( 1  4 27 13 2)
     Any further DFT definition will be discarded
     Please, verify this is what you really want

     Subspace diagonalization in iterative solution of the eigenvalue problem:
     a serial algorithm will be used

     bravais-lattice index     =            0
     lattice parameter (alat)  =       1.8897  a.u.
     unit-cell volume          =    4204.8134 (a.u.)^3
     number of atoms/cell      =           13
     number of atomic types    =            2
     number of electrons       =       184.00
     number of Kohn-Sham states=          102
     kinetic-energy cutoff     =      36.7493  Ry
     charge density cutoff     =     367.4932  Ry
     convergence threshold     =      1.0E-05
     mixing beta               =       0.3000
     number of iterations used =           10  plain     mixing
     Exchange-correlation      = BEEF-VDW ( 1  4 27 13 2)
     nstep                     =           50

     celldm(1)=   1.889726  celldm(2)=   0.000000  celldm(3)=   0.000000
     celldm(4)=   0.000000  celldm(5)=   0.000000  celldm(6)=   0.000000

     crystal axes: (cart. coord. in units of alat)
               a(1) = (   5.426750   0.000000   0.000000 )
               a(2) = (   2.713375   4.699703   0.000000 )
               a(3) = (   0.000000   0.000000  24.430923 )

     reciprocal axes: (cart. coord. in units 2 pi/alat)
               b(1) = (  0.184272 -0.106390  0.000000 )
               b(2) = (  0.000000  0.212779  0.000000 )
               b(3) = (  0.000000  0.000000  0.040932 )

     PseudoPot. # 1 for Rh read from file:
     /afs/slac.stanford.edu/u/if/mamunm/psp/gbrv1.5pbe/Rh.UPF
     MD5 check sum: 761627e959a2e3a1f56b0b5fe687810e
     Pseudo is Ultrasoft + core correction, Zval = 15.0
     Generated by new atomic code, or converted to UPF format
     Using radial grid of  969 points,  7 beta functions with:
                l(1) =   0
                l(2) =   0
                l(3) =   1
                l(4) =   1
                l(5) =   2
                l(6) =   2
                l(7) =   2
     Q(r) pseudized with  8 coefficients,  rinner =    1.200   1.200   1.200
                                                       1.200   1.200

     PseudoPot. # 2 for C  read from file:
     /afs/slac.stanford.edu/u/if/mamunm/psp/gbrv1.5pbe/C.UPF
     MD5 check sum: d1aef80898a10debaa0f26306b886e00
     Pseudo is Ultrasoft + core correction, Zval =  4.0
     Generated by new atomic code, or converted to UPF format
     Using radial grid of  721 points,  4 beta functions with:
                l(1) =   0
                l(2) =   0
                l(3) =   1
                l(4) =   1
     Q(r) pseudized with  8 coefficients,  rinner =    1.100   1.100   1.100

     vdW kernel table read from file vdW_kernel_table
     MD5 check sum: 095c7af220d748ca6e76c0b4c6cfb241

     atomic species   valence    mass     pseudopotential
        Rh1           15.00   102.90550     Rh( 1.00)
        C1             4.00    12.01100     C ( 1.00)

     No symmetry found

   Cartesian axes

     site n.     atom                  positions (alat units)
         1           Rh1 tau(   1) = (   1.3566875   0.7832839  10.0000000  )
         2           Rh1 tau(   2) = (   4.0700625   0.7832839  10.0000000  )
         3           Rh1 tau(   3) = (   2.7133750   3.1331356  10.0000000  )
         4           Rh1 tau(   4) = (   5.4267500   3.1331356  10.0000000  )
         5           Rh1 tau(   5) = (   5.4267500   1.5665678  12.2154614  )
         6           Rh1 tau(   6) = (   2.7133750   1.5665678  12.2154614  )
         7           Rh1 tau(   7) = (   6.7834375   3.9164194  12.2154614  )
         8           Rh1 tau(   8) = (   4.0700625   3.9164194  12.2154614  )
         9           Rh1 tau(   9) = (   5.4266878   0.0002388  14.3713564  )
        10           Rh1 tau(  10) = (   5.4268489   4.6567855  14.4820341  )
        11           Rh1 tau(  11) = (   6.7461901   2.3711095  14.4819380  )
        12           Rh1 tau(  12) = (   4.1071627   2.3708992  14.4823177  )
        13           C1  tau(  13) = (   2.7135046   1.5665387  15.4917749  )

     number of k points=    20  Fermi-Dirac smearing, width (Ry)=  0.0110
                       cart. coord. in units 2pi/alat
        k(    1) = (   0.0000000   0.0000000   0.0000000), wk =   0.0555556
        k(    2) = (   0.0000000   0.0354632   0.0000000), wk =   0.1111111
        k(    3) = (   0.0000000   0.0709265   0.0000000), wk =   0.1111111
        k(    4) = (   0.0000000  -0.1063897   0.0000000), wk =   0.0555556
        k(    5) = (   0.0307121  -0.0177316   0.0000000), wk =   0.1111111
        k(    6) = (   0.0307121   0.0177316   0.0000000), wk =   0.1111111
        k(    7) = (   0.0307121   0.0531948   0.0000000), wk =   0.1111111
        k(    8) = (   0.0307121  -0.1241213   0.0000000), wk =   0.1111111
        k(    9) = (   0.0307121  -0.0886581   0.0000000), wk =   0.1111111
        k(   10) = (   0.0307121  -0.0531948   0.0000000), wk =   0.1111111
        k(   11) = (   0.0614241  -0.0354632   0.0000000), wk =   0.1111111
        k(   12) = (   0.0614241   0.0000000   0.0000000), wk =   0.1111111
        k(   13) = (   0.0614241   0.0354632   0.0000000), wk =   0.1111111
        k(   14) = (   0.0614241  -0.1418529   0.0000000), wk =   0.1111111
        k(   15) = (   0.0614241  -0.1063897   0.0000000), wk =   0.1111111
        k(   16) = (   0.0614241  -0.0709265   0.0000000), wk =   0.1111111
        k(   17) = (  -0.0921362   0.0531948   0.0000000), wk =   0.0555556
        k(   18) = (  -0.0921362   0.0886581   0.0000000), wk =   0.1111111
        k(   19) = (  -0.0921362   0.1241213   0.0000000), wk =   0.1111111
        k(   20) = (  -0.0921362  -0.0531948   0.0000000), wk =   0.0555556

     Largest allocated arrays     est. size (Mb)     dimensions
     Largest temporary arrays     est. size (Mb)     dimensions

     Initial potential from superposition of free atoms
     Check: negative starting charge=   -0.659534

     starting charge  177.99878, renormalised to  184.00000

[...]

     *
     * You are using vdW-DF for exchange-correlation in this calculation.
     * Please cite the following three references that made this development
     * possible:
     *
     *   M. Dion, H. Rydberg, E. Schroder, D. C. Langreth, and
     *   B. I. Lundqvist, Phys. Rev. Lett. 92, 246401 (2004).
     *
     *   T. Thonhauser, V. R. Cooper, S. Li, A. Puzder, P. Hyldgaard, and
     *   D. C. Langreth, Phys. Rev. B 76, 125112 (2007).
     *
     *   G. Roman-Perez and J. M. Soler, Phys. Rev. Lett. 103, 096102 (2009).
     *
     *
     * If you are using vdW-DF2, please also cite:
     *
     *   K. Lee, E. D. Murray, L. Kong, B. I. Lundqvist, and
     *   D. C. Langreth, Phys. Rev. B 82, 081101(R) (2010).
     *
     *
     * If you are calculating the stress with vdW-DF, please also cite:
     *
     *   R. Sabatini, E. Kucukbenli, B. Kolb, T. Thonhauser, and
     *   S. de Gironcoli, J. Phys.: Condens. Matter 24, 424209 (2012).
     *

     Carrying out vdW-DF run using the following parameters:

     Nqs =      20    Nr_points =    1024   r_max =   100.000
     q_mesh =
               0.00001000     0.04494208     0.09755937     0.15916263
               0.23128650     0.31572767     0.41458969     0.53033537
               0.66584808     0.82450364     1.01025438     1.22772762
               1.48234092     1.78043706     2.12944203     2.53805004
               3.01644009     3.57652955     4.23227104     5.00000000

     Gradients computed in reciprocal space

[...]

     Starting wfc are  148 randomized atomic wfcs

     Self-consistent Calculation

[...]

     total energy              =   -2077.91434022 Ry
     Harris-Foulkes estimate   =   -2077.91434177 Ry
     estimated scf accuracy    <       0.00001047 Ry

     iteration # 22     ecut=    36.75 Ry     beta=0.30
     Davidson diagonalization with overlap
     ethr =  5.69E-09,  avg # of iterations =  2.0

[...]

     negative rho (up, down):  6.950E-01 0.000E+00

     Adding external electric field

     Computed dipole along edir(3) :
        Dipole               -0.1297 Ry au,         -0.3298 Debye
        Dipole field         -0.0004 Ry au

        Potential amp.        0.0349 Ry
        Total length         45.0136 bohr

     End of self-consistent calculation

[...]

          k = 0.0614-0.0709 0.0000 ( 15838 PWs)   bands (ev):

[...]

          k =-0.0921-0.0532 0.0000 ( 15852 PWs)   bands (ev):

   -45.5123 -45.3710 -45.2873 -45.2663 -45.2199 -45.1716 -45.1585 -45.1434
   -45.1285 -45.1040 -45.0592 -45.0526 -45.0334 -44.9900 -44.9762 -44.9238
   -44.8827 -44.8564 -44.8443 -44.8370 -44.8033 -44.7655 -44.7362 -44.7122
   -44.7028 -44.6810 -44.6718 -44.6374 -44.5636 -44.5354 -44.5342 -44.5213
   -44.5026 -44.4959 -44.4883 -44.4748  -9.4067  -4.1458  -3.5459  -3.3791
    -3.1780  -3.0613  -3.0167  -2.9398  -2.8597  -2.7022  -2.6435  -2.5576
    -2.4759  -2.4612  -2.3920  -2.2466  -2.2230  -2.1071  -2.0014  -1.7513
    -1.6013  -1.5887  -1.5462  -1.3877  -1.2956  -1.2451  -1.1424  -1.0811
    -0.8675  -0.8447  -0.7014  -0.6061  -0.5344  -0.5174  -0.4484  -0.4130
    -0.3324  -0.3245  -0.3075  -0.2625  -0.1787  -0.1521   0.1898   0.2336
     0.2669   0.3552   0.4426   0.6086   0.6586   0.6664   0.7528   0.7987
     0.9147   1.1276   1.2311   1.2584   1.3605   1.3698   1.7763   1.8191
     1.9504   2.0549   2.2528   2.3402   2.4745   3.2359

     the Fermi energy is     1.6609 ev

!    total energy              =   -2077.91433965 Ry
     Harris-Foulkes estimate   =   -2077.91434166 Ry
     estimated scf accuracy    <       0.00000179 Ry

     The total energy is the sum of the following terms:

     one-electron contribution =  -19510.57794592 Ry
     hartree contribution      =    9797.16179434 Ry
     xc contribution           =    -375.88703823 Ry
     ewald contribution        =    8011.50979251 Ry
     electric field correction =       0.00005031 Ry
     smearing contrib. (-TS)   =      -0.12099266 Ry

     convergence has been achieved in  22 iterations

 BEEF-vdW xc energy contributions
           1 :   -327.373215089492
           2 :    300.836692309746
           3 :   -254.870988213752
           4 :    200.806612115313
           5 :   -150.120146869461
           6 :    110.896838447641
           7 :   -85.9773442280357
           8 :    73.2194284498041
           9 :   -67.4685939425143
          10 :    63.2242946631118
          11 :   -56.8454421135018
          12 :    47.4937068899996
          13 :   -36.6772321600710
          14 :    26.8807267224217
          15 :   -20.0724221326095
          16 :    16.7789644394971
          17 :   -16.0366755149431
          18 :    16.0765887174633
          19 :   -15.2931370362305
          20 :    12.9845726004694
          21 :   -9.53016574077617
          22 :    5.99746627547307
          23 :   -3.46556488885130
          24 :    2.44645128345297
          25 :   -2.67999015734506
          26 :    3.35567825132489
          27 :   -3.59636399135206
          28 :    2.92446676127963
          29 :   -1.46735914467683
          30 :  -0.179745066940200
          31 :   -32.4496264800083
          32 :   -24.3917165671602

     Forces acting on atoms (Ry/au):

     negative rho (up, down):  6.950E-01 0.000E+00
     atom    1 type  1   force =     0.00285791    0.00164671    0.00527768
     atom    2 type  1   force =    -0.00285624    0.00164661    0.00527499
     atom    3 type  1   force =     0.00000103   -0.00331236    0.00523108
     atom    4 type  1   force =     0.00000107   -0.00000929    0.00630178
     atom    5 type  1   force =    -0.00001437    0.00209801   -0.00290313
     atom    6 type  1   force =     0.00000339   -0.00000896   -0.01421389
     atom    7 type  1   force =    -0.00180967   -0.00105115   -0.00287427
     atom    8 type  1   force =     0.00181158   -0.00106870   -0.00283605
     atom    9 type  1   force =     0.00005172   -0.00018547    0.00008202
     atom   10 type  1   force =    -0.00009425    0.00031966    0.00039464
     atom   11 type  1   force =     0.00040772   -0.00012719    0.00040808
     atom   12 type  1   force =    -0.00022118    0.00009318    0.00022697
     atom   13 type  2   force =    -0.00013873   -0.00004105   -0.00036989

     Total force =     0.019909     Total SCF correction =     0.004723
     SCF correction compared to forces is large: reduce conv_thr to get better values

     entering subroutine stress ...

     negative rho (up, down):  6.950E-01 0.000E+00
          total   stress  (Ry/bohr**3)                   (kbar)     P=  -23.48
  -0.00014643   0.00000005  -0.00000007        -21.54      0.01     -0.01
   0.00000005  -0.00014653  -0.00000003          0.01    -21.55     -0.00
  -0.00000007  -0.00000003  -0.00018583         -0.01     -0.00    -27.34

 !ASE

     Writing output data file calc.save

     General routines

     Parallel routines

   This run was terminated on:   0:51:40  20Jan2018

   JOB DONE.
Job  /afs/slac/g/suncat/bin/suncat-tsmpirun -x LD_LIBRARY_PATH -wdir /scratch/qe869904_w67Tk pw.x -in pw.inp

TID   HOST_NAME   COMMAND_LINE            STATUS            TERMINATION_TIME
00000 suncat1053 pw.x -in pw.inp   Done                     01/20/2018 00:51:40
00001 suncat1053 pw.x -in pw.inp   Done                     01/20/2018 00:51:40
00002 suncat1053 pw.x -in pw.inp   Done                     01/20/2018 00:51:40
00003 suncat1053 pw.x -in pw.inp   Done                     01/20/2018 00:51:40
00004 suncat1053 pw.x -in pw.inp   Done                     01/20/2018 00:51:40
00005 suncat1053 pw.x -in pw.inp   Done                     01/20/2018 00:51:40
00006 suncat1053 pw.x -in pw.inp   Done                     01/20/2018 00:51:40
00007 suncat1053 pw.x -in pw.inp   Done                     01/20/2018 00:51:40
00008 suncat1045 pw.x -in pw.inp   Done                     01/20/2018 00:51:40
00009 suncat1045 pw.x -in pw.inp   Done                     01/20/2018 00:51:40
00010 suncat1045 pw.x -in pw.inp   Done                     01/20/2018 00:51:40
00011 suncat1045 pw.x -in pw.inp   Done                     01/20/2018 00:51:40
00012 suncat1045 pw.x -in pw.inp   Done                     01/20/2018 00:51:40
00013 suncat1045 pw.x -in pw.inp   Done                     01/20/2018 00:51:40
00014 suncat1045 pw.x -in pw.inp   Done                     01/20/2018 00:51:40
00015 suncat1045 pw.x -in pw.inp   Done                     01/20/2018 00:51:40
00016 suncat1045 pw.x -in pw.inp   Done                     01/20/2018 00:51:40
00017 suncat1045 pw.x -in pw.inp   Done                     01/20/2018 00:51:40
00018 suncat1045 pw.x -in pw.inp   Done                     01/20/2018 00:51:40
00019 suncat1045 pw.x -in pw.inp   Done                     01/20/2018 00:51:40
00020 suncat1022 pw.x -in pw.inp   Done                     01/20/2018 00:51:40
00021 suncat1022 pw.x -in pw.inp   Done                     01/20/2018 00:51:40
00022 suncat1022 pw.x -in pw.inp   Done                     01/20/2018 00:51:40
00023 suncat1022 pw.x -in pw.inp   Done                     01/20/2018 00:51:40
00024 suncat1022 pw.x -in pw.inp   Done                     01/20/2018 00:51:40
00025 suncat1022 pw.x -in pw.inp   Done                     01/20/2018 00:51:40
00026 suncat1022 pw.x -in pw.inp   Done                     01/20/2018 00:51:40
00027 suncat1022 pw.x -in pw.inp   Done                     01/20/2018 00:51:40
00028 suncat1022 pw.x -in pw.inp   Done                     01/20/2018 00:51:40
00029 suncat1022 pw.x -in pw.inp   Done                     01/20/2018 00:51:40
00030 suncat1022 pw.x -in pw.inp   Done                     01/20/2018 00:51:40
00031 suncat1022 pw.x -in pw.inp   Done                     01/20/2018 00:51:40