     Program PWSCF v.5.1rc2 (svn rev. 11289) starts on 23Jan2018 at 20:22:23

     Current dimensions of program PWSCF are:
     Max number of different atomic species (ntypx) = 10
     Max number of k-points (npk) =  40000
     Max angular momentum in pseudopotentials (lmaxx) =  3
     Presently stress not available with electric field

     IMPORTANT: XC functional enforced from input :
     Exchange-correlation      = BEEF-VDW ( 1  4 27 13 2)
     Any further DFT definition will be discarded
     Please, verify this is what you really want

     Subspace diagonalization in iterative solution of the eigenvalue problem:
     a serial algorithm will be used

     bravais-lattice index     =            0
     lattice parameter (alat)  =       1.8897  a.u.
     unit-cell volume          =    4806.0858 (a.u.)^3
     number of atoms/cell      =           13
     number of atomic types    =            2
     number of electrons       =       150.00
     number of Kohn-Sham states=           85
     kinetic-energy cutoff     =      36.7493  Ry
     charge density cutoff     =     367.4932  Ry
     convergence threshold     =      1.0E-05
     mixing beta               =       0.3000
     number of iterations used =           10  plain     mixing
     Exchange-correlation      = BEEF-VDW ( 1  4 27 13 2)
     nstep                     =           50

     celldm(1)=   1.889726  celldm(2)=   0.000000  celldm(3)=   0.000000
     celldm(4)=   0.000000  celldm(5)=   0.000000  celldm(6)=   0.000000

     crystal axes: (cart. coord. in units of alat)
               a(1) = (   5.768903   0.000000   0.000000 )
               a(2) = (   2.884451   4.996016   0.000000 )
               a(3) = (   0.000000   0.000000  24.710289 )

     reciprocal axes: (cart. coord. in units 2 pi/alat)
               b(1) = (  0.173343 -0.100080  0.000000 )
               b(2) = (  0.000000  0.200159  0.000000 )
               b(3) = (  0.000000  0.000000  0.040469 )

     PseudoPot. # 1 for Ti read from file:
     /afs/slac.stanford.edu/u/if/mamunm/psp/gbrv1.5pbe/Ti.UPF
     MD5 check sum: 88a00a6731bd790ddea75d31a80cb452
     Pseudo is Ultrasoft + core correction, Zval = 12.0
     Generated by new atomic code, or converted to UPF format
     Using radial grid of  851 points,  6 beta functions with:
                l(1) =   0
                l(2) =   0
                l(3) =   1
                l(4) =   1
                l(5) =   2
                l(6) =   2
     Q(r) pseudized with  6 coefficients,  rinner =    1.000   1.000   1.000
                                                       1.000   1.000

     PseudoPot. # 2 for S  read from file:
     /afs/slac.stanford.edu/u/if/mamunm/psp/gbrv1.5pbe/S.UPF
     MD5 check sum: 88d86576ff6df21479756cfb9bdac1df
     Pseudo is Ultrasoft + core correction, Zval =  6.0
     Generated by new atomic code, or converted to UPF format
     Using radial grid of  907 points,  6 beta functions with:
                l(1) =   0
                l(2) =   0
                l(3) =   1
                l(4) =   1
                l(5) =   2
                l(6) =   2
     Q(r) pseudized with  8 coefficients,  rinner =    1.300   1.300   1.300
                                                       1.300   1.300

     vdW kernel table read from file vdW_kernel_table
     MD5 check sum: 095c7af220d748ca6e76c0b4c6cfb241

     atomic species   valence    mass     pseudopotential
        Ti1           12.00    47.86700     Ti( 1.00)
        S1             6.00    32.06000     S ( 1.00)

     No symmetry found

   Cartesian axes

     site n.     atom                  positions (alat units)
         1           Ti1 tau(   1) = (   1.4422257   0.8326694  10.0000000  )
         2           Ti1 tau(   2) = (   4.3266771   0.8326694  10.0000000  )
         3           Ti1 tau(   3) = (   2.8844514   3.3306776  10.0000000  )
         4           Ti1 tau(   4) = (   5.7689029   3.3306776  10.0000000  )
         5           Ti1 tau(   5) = (   5.7689029   1.6653388  12.3551447  )
         6           Ti1 tau(   6) = (   2.8844514   1.6653388  12.3551447  )
         7           Ti1 tau(   7) = (   7.2111286   4.1633470  12.3551447  )
         8           Ti1 tau(   8) = (   4.3266771   4.1633470  12.3551447  )
         9           Ti1 tau(   9) = (   8.5109274   4.9723694  14.7145969  )
        10           Ti1 tau(  10) = (   5.9112171   4.9723373  14.7149814  )
        11           Ti1 tau(  11) = (   1.4421207   2.4319381  14.6705270  )
        12           Ti1 tau(  12) = (   4.3267712   2.5953675  14.7358765  )
        13           S1  tau(  13) = (   4.3265057   4.9681219  16.4441160  )

     number of k points=    20  Fermi-Dirac smearing, width (Ry)=  0.0110
                       cart. coord. in units 2pi/alat
        k(    1) = (   0.0000000   0.0000000   0.0000000), wk =   0.0555556
        k(    2) = (   0.0000000   0.0333599   0.0000000), wk =   0.1111111
        k(    3) = (   0.0000000   0.0667198   0.0000000), wk =   0.1111111
        k(    4) = (   0.0000000  -0.1000797   0.0000000), wk =   0.0555556
        k(    5) = (   0.0288905  -0.0166800   0.0000000), wk =   0.1111111
        k(    6) = (   0.0288905   0.0166800   0.0000000), wk =   0.1111111
        k(    7) = (   0.0288905   0.0500399   0.0000000), wk =   0.1111111
        k(    8) = (   0.0288905  -0.1167597   0.0000000), wk =   0.1111111
        k(    9) = (   0.0288905  -0.0833998   0.0000000), wk =   0.1111111
        k(   10) = (   0.0288905  -0.0500399   0.0000000), wk =   0.1111111
        k(   11) = (   0.0577811  -0.0333599   0.0000000), wk =   0.1111111
        k(   12) = (   0.0577811  -0.0000000   0.0000000), wk =   0.1111111
        k(   13) = (   0.0577811   0.0333599   0.0000000), wk =   0.1111111
        k(   14) = (   0.0577811  -0.1334396   0.0000000), wk =   0.1111111
        k(   15) = (   0.0577811  -0.1000797   0.0000000), wk =   0.1111111
        k(   16) = (   0.0577811  -0.0667198   0.0000000), wk =   0.1111111
        k(   17) = (  -0.0866716   0.0500399   0.0000000), wk =   0.0555556
        k(   18) = (  -0.0866716   0.0833998   0.0000000), wk =   0.1111111
        k(   19) = (  -0.0866716   0.1167597   0.0000000), wk =   0.1111111
        k(   20) = (  -0.0866716  -0.0500399   0.0000000), wk =   0.0555556

     Largest allocated arrays     est. size (Mb)     dimensions
     Largest temporary arrays     est. size (Mb)     dimensions

     Check: negative/imaginary core charge=   -0.000006    0.000000

     Initial potential from superposition of free atoms
     Check: negative starting charge=   -0.014353

     starting charge  137.99943, renormalised to  150.00000

     negative rho (up, down):  1.560E-02 0.000E+00

     *
     * You are using vdW-DF for exchange-correlation in this calculation.
     * Please cite the following three references that made this development
     * possible:
     *
     *   M. Dion, H. Rydberg, E. Schroder, D. C. Langreth, and
     *   B. I. Lundqvist, Phys. Rev. Lett. 92, 246401 (2004).
     *
     *   T. Thonhauser, V. R. Cooper, S. Li, A. Puzder, P. Hyldgaard, and
     *   D. C. Langreth, Phys. Rev. B 76, 125112 (2007).
     *
     *   G. Roman-Perez and J. M. Soler, Phys. Rev. Lett. 103, 096102 (2009).
     *
     *
     * If you are using vdW-DF2, please also cite:
     *
     *   K. Lee, E. D. Murray, L. Kong, B. I. Lundqvist, and
     *   D. C. Langreth, Phys. Rev. B 82, 081101(R) (2010).
     *
     *
     * If you are calculating the stress with vdW-DF, please also cite:
     *
     *   R. Sabatini, E. Kucukbenli, B. Kolb, T. Thonhauser, and
     *   S. de Gironcoli, J. Phys.: Condens. Matter 24, 424209 (2012).
     *

     Carrying out vdW-DF run using the following parameters:

     Nqs =      20    Nr_points =    1024   r_max =   100.000
     q_mesh =
               0.00001000     0.04494208     0.09755937     0.15916263
               0.23128650     0.31572767     0.41458969     0.53033537
               0.66584808     0.82450364     1.01025438     1.22772762
               1.48234092     1.78043706     2.12944203     2.53805004
               3.01644009     3.57652955     4.23227104     5.00000000

     Gradients computed in reciprocal space

     Adding external electric field

     Computed dipole along edir(3) :
        Dipole               -4.0318 Ry au,        -10.2479 Debye
        Dipole field         -0.0105 Ry au

        Potential amp.        0.9599 Ry
        Total length         45.5283 bohr

     Starting wfc are  124 randomized atomic wfcs

     Self-consistent Calculation

     iteration #  1     ecut=    36.75 Ry     beta=0.30
     Davidson diagonalization with overlap
     ethr =  1.00E-02,  avg # of iterations =  6.2

[...]

     total energy              =   -1311.72606797 Ry
     Harris-Foulkes estimate   =   -1465.15848339 Ry
     estimated scf accuracy    <     317.61419707 Ry

[...]

     End of self-consistent calculation

          k = 0.0000 0.0000 0.0000 ( 18103 PWs)   bands (ev):

   -56.2297 -56.1841 -56.1517 -56.0932 -56.0932 -56.0915 -56.0222 -55.9702
   -55.9529 -55.9067 -55.8982 -55.8495 -32.6649 -32.6596 -32.6487 -32.6379
   -32.6245 -32.6178 -32.5993 -32.5805 -32.5322 -32.5080 -32.4679 -32.4193
   -32.3355 -32.3165 -32.2839 -32.2518 -32.2453 -32.2209 -32.2150 -32.2132
   -32.2123 -32.1924 -32.1342 -32.0992 -32.0882 -32.0869 -32.0861 -32.0848
   -32.0547 -32.0070 -31.9994 -31.9963 -31.9831 -31.9514 -31.8751 -31.8693
   -11.7870  -4.6148  -3.3978  -2.7401  -2.5238  -2.4934  -1.8830  -1.4905
    -1.4880  -1.4413  -1.2530  -1.2450  -1.2110  -0.8115  -0.7858  -0.7210
    -0.6811  -0.6479  -0.4558  -0.0842   0.0939   0.3255   0.7386   0.9880
     1.0200   1.0889   1.2379   1.3349   1.4168   1.4382   1.4390   1.5920
     1.5962   1.6912   1.7263   1.7889   1.8075

[...]

          k =-0.0867 0.0500 0.0000 ( 18044 PWs)   bands (ev):

[...]

     the Fermi energy is     0.8172 ev

!    total energy              =   -1463.16923477 Ry
     Harris-Foulkes estimate   =   -1463.16923092 Ry
     estimated scf accuracy    <       0.00000208 Ry

     The total energy is the sum of the following terms:

     one-electron contribution =  -11221.85113281 Ry
     hartree contribution      =    5598.47118694 Ry
     xc contribution           =    -233.76668024 Ry
     ewald contribution        =    4394.10541127 Ry
     electric field correction =       0.00006447 Ry
     smearing contrib. (-TS)   =      -0.12808440 Ry

     convergence has been achieved in  41 iterations

 BEEF-vdW xc energy contributions
           1 :   -200.845712037080
           2 :    179.371880350092
           3 :   -144.098134218465
           4 :    106.171350216607
           5 :   -74.8059842693892
           6 :    53.7601296586566
           7 :   -41.2565138407243
           8 :    32.6800773759354
           9 :   -23.9836568973751
          10 :    13.7424202659615
          11 :   -3.06836746283670
          12 :   -5.99183450187712
          13 :    12.1917236280392
          14 :   -15.8210847612198
          15 :    18.1803572901770
          16 :   -20.4249778337002
          17 :    22.7153189756580
          18 :   -24.2517626523376
[...]
     ethr =  1.44E-06,  avg # of iterations =  5.2

[...]

     Total force =     0.033743     Total SCF correction =     0.003000

[...]

     iteration # 34     ecut=    36.75 Ry     beta=0.30
     Davidson diagonalization with overlap
     c_bands:  1 eigenvalues not converged
     ethr =  1.56E-06,  avg # of iterations =  4.3

[...]

   This run was terminated on:  22: 7:42  23Jan2018

[...]

     Program PWSCF v.5.1rc2 (svn rev. 11289) starts on 23Jan2018 at 22: 7:48

[...]

   This run was terminated on:  22:34:51  23Jan2018

[...]

     Program PWSCF v.5.1rc2 (svn rev. 11289) starts on 23Jan2018 at 22:34:57

     Current dimensions of program PWSCF are:
     Max number of different atomic species (ntypx) = 10
     Max number of k-points (npk) =  40000
     Max angular momentum in pseudopotentials (lmaxx) =  3
     Presently stress not available with electric field

     IMPORTANT: XC functional enforced from input :
     Exchange-correlation      = BEEF-VDW ( 1  4 27 13 2)
     Any further DFT definition will be discarded
     Please, verify this is what you really want

     Subspace diagonalization in iterative solution of the eigenvalue problem:
     a serial algorithm will be used

     bravais-lattice index     =            0
     lattice parameter (alat)  =       1.8897  a.u.
     unit-cell volume          =    4806.0858 (a.u.)^3
     number of atoms/cell      =           13
     number of atomic types    =            2
     number of electrons       =       150.00
     number of Kohn-Sham states=           85
     kinetic-energy cutoff     =      36.7493  Ry
     charge density cutoff     =     367.4932  Ry
     convergence threshold     =      1.0E-05
     mixing beta               =       0.3000
     number of iterations used =           10  plain     mixing
     Exchange-correlation      = BEEF-VDW ( 1  4 27 13 2)
     nstep                     =           50

     celldm(1)=   1.889726  celldm(2)=   0.000000  celldm(3)=   0.000000
     celldm(4)=   0.000000  celldm(5)=   0.000000  celldm(6)=   0.000000

     crystal axes: (cart. coord. in units of alat)
               a(1) = (   5.768903   0.000000   0.000000 )
               a(2) = (   2.884451   4.996016   0.000000 )
               a(3) = (   0.000000   0.000000  24.710289 )

     reciprocal axes: (cart. coord. in units 2 pi/alat)
               b(1) = (  0.173343 -0.100080  0.000000 )
               b(2) = (  0.000000  0.200159  0.000000 )
               b(3) = (  0.000000  0.000000  0.040469 )

     PseudoPot. # 1 for Ti read from file:
     /afs/slac.stanford.edu/u/if/mamunm/psp/gbrv1.5pbe/Ti.UPF
     MD5 check sum: 88a00a6731bd790ddea75d31a80cb452
     Pseudo is Ultrasoft + core correction, Zval = 12.0
     Generated by new atomic code, or converted to UPF format
     Using radial grid of  851 points,  6 beta functions with:
                l(1) =   0
                l(2) =   0
                l(3) =   1
                l(4) =   1
                l(5) =   2
                l(6) =   2
     Q(r) pseudized with  6 coefficients,  rinner =    1.000   1.000   1.000
                                                       1.000   1.000

     PseudoPot. # 2 for S  read from file:
     /afs/slac.stanford.edu/u/if/mamunm/psp/gbrv1.5pbe/S.UPF
     MD5 check sum: 88d86576ff6df21479756cfb9bdac1df
     Pseudo is Ultrasoft + core correction, Zval =  6.0
     Generated by new atomic code, or converted to UPF format
     Using radial grid of  907 points,  6 beta functions with:
                l(1) =   0
                l(2) =   0
                l(3) =   1
                l(4) =   1
                l(5) =   2
                l(6) =   2
     Q(r) pseudized with  8 coefficients,  rinner =    1.300   1.300   1.300
                                                       1.300   1.300

     vdW kernel table read from file vdW_kernel_table
     MD5 check sum: 095c7af220d748ca6e76c0b4c6cfb241

     atomic species   valence    mass     pseudopotential
        Ti1           12.00    47.86700     Ti( 1.00)
        S1             6.00    32.06000     S ( 1.00)

     No symmetry found

   Cartesian axes

     site n.     atom                  positions (alat units)
         1           Ti1 tau(   1) = (   1.4422257   0.8326694  10.0000000  )
         2           Ti1 tau(   2) = (   4.3266771   0.8326694  10.0000000  )
         3           Ti1 tau(   3) = (   2.8844514   3.3306776  10.0000000  )
         4           Ti1 tau(   4) = (   5.7689029   3.3306776  10.0000000  )
         5           Ti1 tau(   5) = (   5.7689029   1.6653388  12.3551447  )
         6           Ti1 tau(   6) = (   2.8844514   1.6653388  12.3551447  )
         7           Ti1 tau(   7) = (   7.2111286   4.1633470  12.3551447  )
         8           Ti1 tau(   8) = (   4.3266771   4.1633470  12.3551447  )
         9           Ti1 tau(   9) = (   8.5740255   4.9557325  14.6181342  )
        10           Ti1 tau(  10) = (   5.8482819   4.9556362  14.6180221  )
        11           Ti1 tau(  11) = (   1.4421021   2.4411014  14.6966936  )
        12           Ti1 tau(  12) = (   4.3266623   2.6153407  14.7627305  )
        13           S1  tau(  13) = (   4.3268271   4.9499070  16.3978325  )

     number of k points=    20  Fermi-Dirac smearing, width (Ry)=  0.0110
                       cart. coord. in units 2pi/alat
        k(    1) = (   0.0000000   0.0000000   0.0000000), wk =   0.0555556
        k(    2) = (   0.0000000   0.0333599   0.0000000), wk =   0.1111111
        k(    3) = (   0.0000000   0.0667198   0.0000000), wk =   0.1111111
        k(    4) = (   0.0000000  -0.1000797   0.0000000), wk =   0.0555556
        k(    5) = (   0.0288905  -0.0166800   0.0000000), wk =   0.1111111
        k(    6) = (   0.0288905   0.0166800   0.0000000), wk =   0.1111111
        k(    7) = (   0.0288905   0.0500399   0.0000000), wk =   0.1111111
        k(    8) = (   0.0288905  -0.1167597   0.0000000), wk =   0.1111111
        k(    9) = (   0.0288905  -0.0833998   0.0000000), wk =   0.1111111
        k(   10) = (   0.0288905  -0.0500399   0.0000000), wk =   0.1111111
        k(   11) = (   0.0577811  -0.0333599   0.0000000), wk =   0.1111111
        k(   12) = (   0.0577811  -0.0000000   0.0000000), wk =   0.1111111
        k(   13) = (   0.0577811   0.0333599   0.0000000), wk =   0.1111111
        k(   14) = (   0.0577811  -0.1334396   0.0000000), wk =   0.1111111
        k(   15) = (   0.0577811  -0.1000797   0.0000000), wk =   0.1111111
        k(   16) = (   0.0577811  -0.0667198   0.0000000), wk =   0.1111111
        k(   17) = (  -0.0866716   0.0500399   0.0000000), wk =   0.0555556
        k(   18) = (  -0.0866716   0.0833998   0.0000000), wk =   0.1111111
        k(   19) = (  -0.0866716   0.1167597   0.0000000), wk =   0.1111111
        k(   20) = (  -0.0866716  -0.0500399   0.0000000), wk =   0.0555556

     Largest allocated arrays     est. size (Mb)     dimensions
     Largest temporary arrays     est. size (Mb)     dimensions

     Check: negative/imaginary core charge=   -0.000006    0.000000

     Initial potential from superposition of free atoms
     Check: negative starting charge=   -0.014587

     starting charge  137.99943, renormalised to  150.00000

[...]

     *
     * You are using vdW-DF for exchange-correlation in this calculation.
     * Please cite the following three references that made this development
     * possible:
     *
     *   M. Dion, H. Rydberg, E. Schroder, D. C. Langreth, and
     *   B. I. Lundqvist, Phys. Rev. Lett. 92, 246401 (2004).
     *
     *   T. Thonhauser, V. R. Cooper, S. Li, A. Puzder, P. Hyldgaard, and
     *   D. C. Langreth, Phys. Rev. B 76, 125112 (2007).
     *
     *   G. Roman-Perez and J. M. Soler, Phys. Rev. Lett. 103, 096102 (2009).
     *
     *
     * If you are using vdW-DF2, please also cite:
     *
     *   K. Lee, E. D. Murray, L. Kong, B. I. Lundqvist, and
     *   D. C. Langreth, Phys. Rev. B 82, 081101(R) (2010).
     *
     *
     * If you are calculating the stress with vdW-DF, please also cite:
     *
     *   R. Sabatini, E. Kucukbenli, B. Kolb, T. Thonhauser, and
     *   S. de Gironcoli, J. Phys.: Condens. Matter 24, 424209 (2012).
     *

     Carrying out vdW-DF run using the following parameters:

     Nqs =      20    Nr_points =    1024   r_max =   100.000
     q_mesh =
               0.00001000     0.04494208     0.09755937     0.15916263
               0.23128650     0.31572767     0.41458969     0.53033537
               0.66584808     0.82450364     1.01025438     1.22772762
               1.48234092     1.78043706     2.12944203     2.53805004
               3.01644009     3.57652955     4.23227104     5.00000000

     Gradients computed in reciprocal space

[...]

     Starting wfc are  124 randomized atomic wfcs

     Self-consistent Calculation

[...]

     total energy              =   -1463.17448112 Ry
     Harris-Foulkes estimate   =   -1463.17448133 Ry
     estimated scf accuracy    <       0.00001704 Ry

     iteration # 40     ecut=    36.75 Ry     beta=0.30
     Davidson diagonalization with overlap
     ethr =  1.14E-08,  avg # of iterations =  3.7

[...]

     negative rho (up, down):  8.661E-03 0.000E+00

     Adding external electric field

     Computed dipole along edir(3) :
        Dipole               -0.1151 Ry au,         -0.2927 Debye
        Dipole field         -0.0003 Ry au

        Potential amp.        0.0274 Ry
        Total length         45.5283 bohr

     End of self-consistent calculation

[...]

          k = 0.0578-0.0667 0.0000 ( 18031 PWs)   bands (ev):

[...]

          k =-0.0867-0.0500 0.0000 ( 18044 PWs)   bands (ev):

   -56.1971 -56.1497 -56.0887 -56.0877 -56.0427 -56.0419 -55.9501 -55.9222
   -55.8812 -55.8779 -55.8209 -55.7874 -32.5658 -32.5451 -32.5256 -32.5015
   -32.4801 -32.4641 -32.4389 -32.4332 -32.4068 -32.3909 -32.3753 -32.3419
   -32.3308 -32.3262 -32.3066 -32.3034 -32.2635 -32.2586 -32.2520 -32.1746
   -32.1481 -32.1244 -32.1014 -32.0996 -32.0891 -32.0764 -32.0679 -32.0569
   -32.0250 -32.0192 -32.0078 -31.9745 -31.9500 -31.9103 -31.8792 -31.8553
   -11.7995  -3.3392  -3.1267  -2.7319  -2.5702  -2.5189  -1.5930  -1.5124
    -1.0605  -0.9900  -0.7942  -0.7513  -0.6500  -0.6251  -0.0949  -0.0376
    -0.0235   0.0024   0.0799   0.1034   0.3766   0.4203   0.4461   0.4692
     0.5355   0.5586   0.6535   0.7360   0.8259   0.8530   0.8849   0.9717
     1.0695   1.1407   1.3059   1.5141   1.5476

     the Fermi energy is     0.8639 ev

!    total energy              =   -1463.17447844 Ry
     Harris-Foulkes estimate   =   -1463.17448085 Ry
     estimated scf accuracy    <       0.00000423 Ry

     The total energy is the sum of the following terms:

     one-electron contribution =  -11282.76475855 Ry
     hartree contribution      =    5629.15843581 Ry
     xc contribution           =    -233.81474432 Ry
     ewald contribution        =    4424.37322390 Ry
     electric field correction =       0.00003467 Ry
     smearing contrib. (-TS)   =      -0.12666994 Ry

     convergence has been achieved in  40 iterations

 BEEF-vdW xc energy contributions
           1 :   -200.894211332467
           2 :    179.440991690785
           3 :   -144.191572301703
           4 :    106.271839046042
           5 :   -74.8877929243496
           6 :    53.8096214792047
           7 :   -41.2844100291221
           8 :    32.7130461520252
           9 :   -24.0405706330713
          10 :    13.8164138265175
          11 :   -3.13196268355694
          12 :   -5.96278234290841
          13 :    12.1966714689123
          14 :   -15.8345956233307
          15 :    18.1720908048212
          16 :   -20.3819486624203
          17 :    22.6495157389346
          18 :   -24.1894832494306
          19 :    24.0107793906148
          20 :   -21.7704866607626
          21 :    18.0610073297926
          22 :   -13.9775493649188
          23 :    10.3607970436912
          24 :   -7.31256778008282
          25 :    4.30873493515520
          26 :  -0.763734564472571
          27 :   -3.41850058626414
          28 :    7.71020057427165
          29 :   -11.3055475323113
          30 :    13.6509112093202
          31 :   -21.4442397358040
          32 :   -15.2643496337187

     Forces acting on atoms (Ry/au):

     negative rho (up, down):  8.661E-03 0.000E+00
     atom    1 type  1   force =    -0.00000546   -0.00002918    0.00882165
     atom    2 type  1   force =     0.00000361    0.00147545    0.00887226
     atom    3 type  1   force =     0.00065669   -0.00095514    0.00758154
     atom    4 type  1   force =    -0.00065887   -0.00095714    0.00760588
     atom    5 type  1   force =    -0.00600302    0.00392327   -0.00010862
     atom    6 type  1   force =     0.00599861    0.00394401   -0.00013156
     atom    7 type  1   force =     0.00002566   -0.00984567   -0.02168993
     atom    8 type  1   force =    -0.00002285    0.00269147   -0.01003204
     atom    9 type  1   force =    -0.00018130    0.00043947   -0.00077454
     atom   10 type  1   force =     0.00019665    0.00044861   -0.00076030
     atom   11 type  1   force =     0.00001139   -0.00125126   -0.00004900
     atom   12 type  1   force =     0.00000413    0.00068016   -0.00028127
     atom   13 type  2   force =    -0.00002522   -0.00056404    0.00094593

     Total force =     0.032557     Total SCF correction =     0.006779
     SCF correction compared to forces is large: reduce conv_thr to get better values

     entering subroutine stress ...

     negative rho (up, down):  8.661E-03 0.000E+00
          total   stress  (Ry/bohr**3)                   (kbar)     P=   -0.52
   0.00004512  -0.00000001  -0.00000001          6.64     -0.00     -0.00
  -0.00000001  -0.00002479  -0.00000029         -0.00     -3.65     -0.04
  -0.00000001  -0.00000029  -0.00003093         -0.00     -0.04     -4.55

 !ASE

     Writing output data file calc.save

     General routines

     Parallel routines

   This run was terminated on:  23: 1:58  23Jan2018

   JOB DONE.
Job  /afs/slac/g/suncat/bin/suncat-tsmpirun -x LD_LIBRARY_PATH -wdir /scratch/qe888509_aWfht pw.x -in pw.inp

TID   HOST_NAME   COMMAND_LINE            STATUS            TERMINATION_TIME
00000 suncat1041 pw.x -in pw.inp   Done                     01/23/2018 23:01:58
00001 suncat1041 pw.x -in pw.inp   Done                     01/23/2018 23:01:58
00002 suncat1041 pw.x -in pw.inp   Done                     01/23/2018 23:01:58
00003 suncat1041 pw.x -in pw.inp   Done                     01/23/2018 23:01:58
00004 suncat1041 pw.x -in pw.inp   Done                     01/23/2018 23:01:58
00005 suncat1041 pw.x -in pw.inp   Done                     01/23/2018 23:01:58
00006 suncat1041 pw.x -in pw.inp   Done                     01/23/2018 23:01:58
00007 suncat1041 pw.x -in pw.inp   Done                     01/23/2018 23:01:58
00008 suncat1040 pw.x -in pw.inp   Done                     01/23/2018 23:01:58
00009 suncat1040 pw.x -in pw.inp   Done                     01/23/2018 23:01:58
00010 suncat1040 pw.x -in pw.inp   Done                     01/23/2018 23:01:58
00011 suncat1040 pw.x -in pw.inp   Done                     01/23/2018 23:01:58
00012 suncat1040 pw.x -in pw.inp   Done                     01/23/2018 23:01:58
00013 suncat1040 pw.x -in pw.inp   Done                     01/23/2018 23:01:58
00014 suncat1040 pw.x -in pw.inp   Done                     01/23/2018 23:01:58
00015 suncat1040 pw.x -in pw.inp   Done                     01/23/2018 23:01:58
00016 suncat1040 pw.x -in pw.inp   Done                     01/23/2018 23:01:58
00017 suncat1040 pw.x -in pw.inp   Done                     01/23/2018 23:01:58
00018 suncat1040 pw.x -in pw.inp   Done                     01/23/2018 23:01:58
00019 suncat1040 pw.x -in pw.inp   Done                     01/23/2018 23:01:58
00020 suncat1015 pw.x -in pw.inp   Done                     01/23/2018 23:01:58
00021 suncat1015 pw.x -in pw.inp   Done                     01/23/2018 23:01:58
00022 suncat1015 pw.x -in pw.inp   Done                     01/23/2018 23:01:58
00023 suncat1015 pw.x -in pw.inp   Done                     01/23/2018 23:01:58
00024 suncat1015 pw.x -in pw.inp   Done                     01/23/2018 23:01:58
00025 suncat1015 pw.x -in pw.inp   Done                     01/23/2018 23:01:58
00026 suncat1015 pw.x -in pw.inp   Done                     01/23/2018 23:01:58
00027 suncat1015 pw.x -in pw.inp   Done                     01/23/2018 23:01:58
00028 suncat1015 pw.x -in pw.inp   Done                     01/23/2018 23:01:58
00029 suncat1015 pw.x -in pw.inp   Done                     01/23/2018 23:01:58
00030 suncat1015 pw.x -in pw.inp   Done                     01/23/2018 23:01:58
00031 suncat1015 pw.x -in pw.inp   Done                     01/23/2018 23:01:58