     Program PWSCF v.5.1rc2 (svn rev. 11289) starts on  3May2018 at 20:24:25

     Current dimensions of program PWSCF are:
     Max number of different atomic species (ntypx) = 10
     Max number of k-points (npk) =  40000
     Max angular momentum in pseudopotentials (lmaxx) =  3
     Presently stress not available with electric field

     IMPORTANT: XC functional enforced from input :
     Exchange-correlation      = BEEF-VDW ( 1  4 27 13 2)
     Any further DFT definition will be discarded
     Please, verify this is what you really want

     Subspace diagonalization in iterative solution of the eigenvalue problem:
     a serial algorithm will be used

     bravais-lattice index     =            0
     lattice parameter (alat)  =       1.8897  a.u.
     unit-cell volume          =    5409.9593 (a.u.)^3
     number of atoms/cell      =           13
     number of atomic types    =            2
     number of electrons       =       234.00
     number of Kohn-Sham states=          127
     kinetic-energy cutoff     =      36.7493  Ry
     charge density cutoff     =     367.4932  Ry
     convergence threshold     =      1.0E-05
     mixing beta               =       0.3000
     number of iterations used =           10  plain     mixing
     Exchange-correlation      = BEEF-VDW ( 1  4 27 13 2)
     nstep                     =           50

     celldm(1)=   1.889726  celldm(2)=   0.000000  celldm(3)=   0.000000
     celldm(4)=   0.000000  celldm(5)=   0.000000  celldm(6)=   0.000000

     crystal axes: (cart. coord. in units of alat)
               a(1) = (   6.088539   0.000000   0.000000 )
               a(2) = (   3.044269   5.272829   0.000000 )
               a(3) = (   0.000000   0.000000  24.971271 )

     reciprocal axes: (cart. coord. in units 2 pi/alat)
               b(1) = (  0.164243 -0.094826  0.000000 )
               b(2) = (  0.000000  0.189652  0.000000 )
               b(3) = (  0.000000  0.000000  0.040046 )

     PseudoPot. # 1 for Ga read from file:
     /u/if/mamunm/psp/gbrv1.5pbe/Ga.UPF
     MD5 check sum: ccd671392a58a050fbb373893b4fcd66
     Pseudo is Ultrasoft + core correction, Zval = 19.0
     Generated by new atomic code, or converted to UPF format
     Using radial grid of  871 points,  6 beta functions with:
                l(1) =   0
                l(2) =   0
                l(3) =   1
                l(4) =   1
                l(5) =   2
                l(6) =   2
     Q(r) pseudized with  8 coefficients,  rinner =    1.250   1.250   1.250
                                                       1.250   1.250

     PseudoPot. # 2 for S  read from file:
     /u/if/mamunm/psp/gbrv1.5pbe/S.UPF
     MD5 check sum: 88d86576ff6df21479756cfb9bdac1df
     Pseudo is Ultrasoft + core correction, Zval =  6.0
     Generated by new atomic code, or converted to UPF format
     Using radial grid of  907 points,  6 beta functions with:
                l(1) =   0
                l(2) =   0
                l(3) =   1
                l(4) =   1
                l(5) =   2
                l(6) =   2
     Q(r) pseudized with  8 coefficients,  rinner =    1.300   1.300   1.300
                                                       1.300   1.300

     vdW kernel table read from file vdW_kernel_table
     MD5 check sum: 095c7af220d748ca6e76c0b4c6cfb241

     atomic species   valence    mass     pseudopotential
        Ga1           19.00    69.72300     Ga( 1.00)
        S1             6.00    32.06000     S ( 1.00)

     No symmetry found

   Cartesian axes

     site n.     atom                  positions (alat units)
         1           Ga1 tau(   1) = (   1.5221346   0.8788048  10.0000000  )
         2           Ga1 tau(   2) = (   4.5664039   0.8788048  10.0000000  )
         3           Ga1 tau(   3) = (   3.0442693   3.5152194  10.0000000  )
         4           Ga1 tau(   4) = (   6.0885386   3.5152194  10.0000000  )
         5           Ga1 tau(   5) = (   6.0885386   1.7576097  12.4856355  )
         6           Ga1 tau(   6) = (   3.0442693   1.7576097  12.4856355  )
         7           Ga1 tau(   7) = (   7.6106732   4.3940242  12.4856355  )
         8           Ga1 tau(   8) = (   4.5664039   4.3940242  12.4856355  )
         9           Ga1 tau(   9) = (   0.0000000   0.0000000  14.9712709  )
        10           Ga1 tau(  10) = (   3.0442693   0.0000000  14.9712709  )
        11           Ga1 tau(  11) = (   1.5221346   2.6364145  14.9712709  )
        12           Ga1 tau(  12) = (   4.5664039   2.6364145  14.9712709  )
        13           S1  tau(  13) = (   1.5221346   0.8788048  16.4467709  )

     number of k points=    20  Fermi-Dirac smearing, width (Ry)=  0.0110
                       cart. coord. in units 2pi/alat
        k(    1) = (   0.0000000   0.0000000   0.0000000), wk =   0.0555556
        k(    2) = (   0.0000000   0.0316086   0.0000000), wk =   0.1111111
        k(    3) = (   0.0000000   0.0632172   0.0000000), wk =   0.1111111
        k(    4) = (   0.0000000  -0.0948258   0.0000000), wk =   0.0555556
        k(    5) = (   0.0273738  -0.0158043   0.0000000), wk =   0.1111111
        k(    6) = (   0.0273738   0.0158043   0.0000000), wk =   0.1111111
        k(    7) = (   0.0273738   0.0474129   0.0000000), wk =   0.1111111
        k(    8) = (   0.0273738  -0.1106300   0.0000000), wk =   0.1111111
        k(    9) = (   0.0273738  -0.0790215   0.0000000), wk =   0.1111111
        k(   10) = (   0.0273738  -0.0474129   0.0000000), wk =   0.1111111
        k(   11) = (   0.0547477  -0.0316086   0.0000000), wk =   0.1111111
        k(   12) = (   0.0547477   0.0000000   0.0000000), wk =   0.1111111
        k(   13) = (   0.0547477   0.0316086   0.0000000), wk =   0.1111111
        k(   14) = (   0.0547477  -0.1264343   0.0000000), wk =   0.1111111
        k(   15) = (   0.0547477  -0.0948258   0.0000000), wk =   0.1111111
        k(   16) = (   0.0547477  -0.0632172   0.0000000), wk =   0.1111111
        k(   17) = (  -0.0821215   0.0474129   0.0000000), wk =   0.0555556
        k(   18) = (  -0.0821215   0.0790215   0.0000000), wk =   0.1111111
        k(   19) = (  -0.0821215   0.1106300   0.0000000), wk =   0.1111111
        k(   20) = (  -0.0821215  -0.0474129   0.0000000), wk =   0.0555556

     Largest allocated arrays     est. size (Mb)     dimensions
     Largest temporary arrays     est. size (Mb)     dimensions

     Initial potential from superposition of free atoms
     Check: negative starting charge=   -0.001169

     starting charge  221.99995, renormalised to  234.00000

     negative rho (up, down):  1.232E-03 0.000E+00

     *
     * You are using vdW-DF for exchange-correlation in this calculation.
     * Please cite the following three references that made this development
     * possible:
     *
     *   M. Dion, H. Rydberg, E. Schroder, D. C. Langreth, and
     *   B. I. Lundqvist, Phys. Rev. Lett. 92, 246401 (2004).
     *
     *   T. Thonhauser, V. R. Cooper, S. Li, A. Puzder, P. Hyldgaard, and
     *   D. C. Langreth, Phys. Rev. B 76, 125112 (2007).
     *
     *   G. Roman-Perez and J. M. Soler, Phys. Rev. Lett. 103, 096102 (2009).
     *
     *
     * If you are using vdW-DF2, please also cite:
     *
     *   K. Lee, E. D. Murray, L. Kong, B. I. Lundqvist, and
     *   D. C. Langreth, Phys. Rev. B 82, 081101(R) (2010).
     *
     *
     * If you are calculating the stress with vdW-DF, please also cite:
     *
     *   R. Sabatini, E. Kucukbenli, B. Kolb, T. Thonhauser, and
     *   S. de Gironcoli, J. Phys.: Condens. Matter 24, 424209 (2012).
     *

     Carrying out vdW-DF run using the following parameters:

     Nqs =      20    Nr_points =    1024   r_max =   100.000
     q_mesh =
               0.00001000     0.04494208     0.09755937     0.15916263
               0.23128650     0.31572767     0.41458969     0.53033537
               0.66584808     0.82450364     1.01025438     1.22772762
               1.48234092     1.78043706     2.12944203     2.53805004
               3.01644009     3.57652955     4.23227104     5.00000000

     Gradients computed in reciprocal space

     Adding external electric field

     Computed dipole along edir(3) :
        Dipole               -2.4274 Ry au,         -6.1699 Debye
        Dipole field         -0.0056 Ry au

        Potential amp.        0.5188 Ry
        Total length         46.0091 bohr

     Starting wfc are  148 randomized atomic wfcs

     Self-consistent Calculation

     iteration #  1     ecut=    36.75 Ry     beta=0.30
     Davidson diagonalization with overlap
     ethr =  1.00E-02,  avg # of iterations =  6.9

[...]

     total energy              =   -4740.14487058 Ry
     Harris-Foulkes estimate   =   -5034.26736622 Ry
     estimated scf accuracy    <     621.04244508 Ry

     iteration #  2     ecut=    36.75 Ry     beta=0.30
     Davidson diagonalization with overlap
     c_bands:  1 eigenvalues not converged
     ethr =  1.00E-02,  avg # of iterations = 18.7

[...]

     End of self-consistent calculation

          k = 0.0000 0.0000 0.0000 ( 20347 PWs)   bands (ev):

   -94.6519 -94.6511 -94.6510 -94.6367 -94.6367 -94.6362 -94.6241 -94.6120
   -94.6113 -94.6113 -94.6103 -94.6103 -94.5715 -94.5713 -94.5713 -94.5578
   -94.5555 -94.5543 -94.5543 -94.5533 -94.5533 -94.5530 -94.5374 -94.5374
   -94.5264 -94.5264 -94.5258 -94.5216 -94.5201 -94.5201 -94.5084 -94.5083
   -94.5083 -94.4879 -94.4625 -94.4625 -15.5356 -15.1013 -15.0993 -15.0993
   -15.0641 -15.0641 -15.0527 -15.0399 -15.0399 -15.0381 -15.0078 -15.0078
   -14.9945 -14.9929 -14.9929 -14.9852 -14.9852 -14.9840 -14.9739 -14.9678
   -14.9678 -14.9650 -14.9552 -14.9482 -14.9482 -14.9263 -14.9263 -14.9217
   -14.9170 -14.9170 -14.9042 -14.9042 -14.8804 -14.8779 -14.8779 -14.8475
   -14.8446 -14.8446 -14.8240 -14.8209 -14.8209 -14.8155 -14.8155 -14.8033
   -14.7853 -14.7853 -14.7772 -14.7693 -14.7693 -14.7535 -14.7531 -14.7509
   -14.7509 -14.7431 -14.7431 -14.7414 -14.7414 -14.7275 -14.7258 -14.7258
   -13.3175  -9.8229  -8.1921  -6.0079  -5.6255  -5.6255  -4.7539  -4.5689
    -4.5689  -4.5493  -3.8773  -3.7739  -3.7739  -2.8752  -2.8752  -2.7493
    -2.1543  -1.8557  -1.8557  -1.6327  -0.8217  -0.8217  -0.6904   0.4536
     0.4536   1.0133   1.8366   3.1164   3.1164   3.1891   3.3604

[...]

          k =-0.0821 0.0474 0.0000 ( 20384 PWs)   bands (ev):

[...]

     the Fermi energy is     0.2064 ev

!    total energy              =   -5023.50724187 Ry
     Harris-Foulkes estimate   =   -5023.50723208 Ry
     estimated scf accuracy    <       0.00000308 Ry

     The total energy is the sum of the following terms:

     one-electron contribution =  -27623.83745252 Ry
     hartree contribution      =   13818.13826719 Ry
     xc contribution           =    -605.42540934 Ry
     ewald contribution        =    9387.65125765 Ry
     electric field correction =       0.00008492 Ry
     smearing contrib. (-TS)   =      -0.03398977 Ry

     convergence has been achieved in  20 iterations

 BEEF-vdW xc energy contributions
           1 :   -540.965711986126
           2 :    490.991484381902
           3 :   -407.141176045814
           4 :    313.701183984440
           5 :   -232.241528562832
           6 :    173.554037793935
           7 :   -136.061541950746
           8 :    110.516733183174
           9 :   -87.4357647485336
          10 :    62.6542243164707
          11 :   -38.2013303186841
          12 :    18.9500318018879
          13 :   -8.05722043856565
          14 :    4.47299481746154
          15 :   -3.88767836882448
          16 :    1.92200134512041
          17 :    3.01307582974437
          18 :   -9.18484776555829
          19 :    13.4309141930011
          20 :   -13.8327595287249
          21 :    11.1436076028456
          22 :   -8.06204461854668
          23 :    7.10103904062476
          24 :   -8.76677135772388
          25 :    11.3817275358545
          26 :   -12.5591040190870
          27 :    11.1025614048781
          28 :   -7.87907803591293
          29 :    5.07638118307409
          30 :   -4.50163149455591
          31 :   -40.1974838714714
          32 :   -27.3161219459607

     Forces acting on atoms (Ry/au):

     negative rho (up, down):  9.725E-04 0.000E+00
     atom    1 type  1   force =    -0.00000571   -0.00000146    0.00258036
     atom    2 type  1   force =    -0.00000281    0.00078121    0.00151597
     atom    3 type  1   force =     0.00067631   -0.00039035    0.00150310
     atom    4 type  1   force =    -0.00067056   -0.00038436    0.00151573
     atom    5 type  1   force =    -0.00093586    0.00054455    0.00638401
     atom    6 type  1   force =     0.00093856    0.00054321    0.00638520
     atom    7 type  1   force =     0.00000010   -0.00000290   -0.00812104
     atom    8 type  1   force =     0.00000087   -0.00108355    0.00633097
     atom    9 type  1   force =    -0.04417141   -0.02550163   -0.02664887
     atom   10 type  1   force =     0.04417189   -0.02550294   -0.02663524
     atom   11 type  1   force =    -0.00000070    0.05100082   -0.02662783
     atom   12 type  1   force =    -0.00000015   -0.00000172   -0.00934184
     atom   13 type  2   force =    -0.00000054   -0.00000088    0.07115948

     Total force =     0.122816     Total SCF correction =     0.001468

     entering subroutine stress ...

     negative rho (up, down):  9.725E-04 0.000E+00
          total   stress  (Ry/bohr**3)                   (kbar)     P=    5.00
   0.00003138  -0.00000000   0.00000000          4.62     -0.00      0.00
  -0.00000000   0.00003138   0.00000000         -0.00      4.62      0.00
   0.00000000   0.00000000   0.00003921          0.00      0.00      5.77

     BFGS Geometry Optimization

     number of scf cycles    =   1
     number of bfgs steps    =   0

     energy   new            =   -5023.5072418666 Ry

     new trust radius        =       0.0711594842 bohr
     new conv_thr            =       0.0000099958 Ry

ATOMIC_POSITIONS (crystal)
Ga1      0.166666667   0.166666667   0.400460194    0   0   0
Ga1      0.666666667   0.166666667   0.400460194    0   0   0
Ga1      0.166666667   0.666666667   0.400460194    0   0   0
Ga1      0.666666667   0.666666667   0.400460194    0   0   0
Ga1      0.833333333   0.333333333   0.500000000    0   0   0
Ga1      0.333333333   0.333333333   0.500000000    0   0   0
Ga1      0.833333333   0.833333333   0.500000000    0   0   0
Ga1      0.333333333   0.833333333   0.500000000    0   0   0
Ga1     -0.002559437  -0.002559325   0.598975078
Ga1      0.505118869  -0.002559456   0.598975367
Ga1     -0.002559263   0.505118404   0.598975524
Ga1      0.500000073   0.499999827   0.599341839
S1       0.166666664   0.166666578   0.660135680

     Writing output data file calc.save
     Check: negative starting charge=   -0.001169
     NEW-OLD atomic charge density approx. for the potential
     Check: negative starting charge=   -0.001176

[...]

     Total force =     0.077458     Total SCF correction =     0.008397
     SCF correction compared to forces is large: reduce conv_thr to get better values

[...]

     energy   old            =   -5023.5072418666 Ry
     energy   new            =   -5023.5191741472 Ry

     CASE: energy  _new < energy  _old

[...]

     Threshold (ethr) on eigenvalues was too large:
     Diagonalizing with lowered threshold

     Davidson diagonalization with overlap
     ethr =  1.29E-08,  avg # of iterations =  3.5

[...]

     Total force =     0.006400     Total SCF correction =     0.000450

[...]

     WARNING: bfgs curvature condition failed, Theta= 0.893
     new trust radius        =       0.0095139228 bohr
     new conv_thr            =       0.0000001000 Ry

[...]

     number of scf cycles    =  14
     number of bfgs steps    =  13

     energy   old            =   -5023.5304015637 Ry
     energy   new            =   -5023.5304671192 Ry

     CASE: energy  _new < energy  _old

     new trust radius        =       0.0321094893 bohr
     new conv_thr            =       0.0000001000 Ry

ATOMIC_POSITIONS (crystal)
Ga1      0.166666667   0.166666667   0.400460194    0   0   0
Ga1      0.666666667   0.166666667   0.400460194    0   0   0
Ga1      0.166666667   0.666666667   0.400460194    0   0   0
Ga1      0.666666667   0.666666667   0.400460194    0   0   0
Ga1      0.833333333   0.333333333   0.500000000    0   0   0
Ga1      0.333333333   0.333333333   0.500000000    0   0   0
Ga1      0.833333333   0.833333333   0.500000000    0   0   0
Ga1      0.333333333   0.833333333   0.500000000    0   0   0
Ga1     -0.012102213  -0.012102072   0.598055068
Ga1      0.524203216  -0.012102758   0.598055284
Ga1     -0.012105500   0.524210394   0.598054651
Ga1      0.499999390   0.500000909   0.593398748
S1       0.166667083   0.166664080   0.658798394

     Writing output data file calc.save
     Check: negative starting charge=   -0.001141
     NEW-OLD atomic charge density approx. for the potential
     Check: negative starting charge=   -0.001139

[...]

     Self-consistent Calculation

[...]

     total energy              =   -5023.53054199 Ry
     Harris-Foulkes estimate   =   -5023.53054214 Ry
     estimated scf accuracy    <       0.00000043 Ry

     iteration #  7     ecut=    36.75 Ry     beta=0.30
     Davidson diagonalization with overlap
     ethr =  1.83E-10,  avg # of iterations =  2.2

[...]

     negative rho (up, down):  9.528E-04 0.000E+00

     Adding external electric field

     Computed dipole along edir(3) :
        Dipole               -0.2582 Ry au,         -0.6562 Debye
        Dipole field         -0.0006 Ry au

        Potential amp.        0.0552 Ry
        Total length         46.0091 bohr

     End of self-consistent calculation

[...]

          k = 0.0547-0.0632 0.0000 ( 20377 PWs)   bands (ev):

[...]

          k =-0.0821-0.0474 0.0000 ( 20384 PWs)   bands (ev):

   -94.7528 -94.7517 -94.7516 -94.7418 -94.7417 -94.7409 -94.7246 -94.7188
   -94.7184 -94.7184 -94.7176 -94.7174 -94.6635 -94.6619 -94.6619 -94.6618
   -94.6486 -94.6480 -94.6476 -94.6468 -94.6468 -94.6464 -94.6434 -94.6432
   -94.6420 -94.6417 -94.6416 -94.6373 -94.6368 -94.6363 -94.6251 -94.6250
   -94.6250 -94.5784 -94.5622 -94.5622 -15.3068 -15.2026 -15.1785 -15.1581
   -15.1523 -15.1343 -15.1326 -15.1230 -15.1151 -15.1131 -15.1001 -15.0853
   -15.0806 -15.0780 -15.0715 -15.0701 -15.0660 -15.0622 -15.0596 -15.0518
   -15.0444 -15.0382 -15.0348 -15.0271 -15.0218 -15.0157 -15.0144 -15.0078
   -15.0067 -14.9995 -14.9949 -14.9929 -14.9871 -14.9818 -14.9807 -14.9714
   -14.9670 -14.9640 -14.9637 -14.9483 -14.9449 -14.9408 -14.9372 -14.9339
   -14.9294 -14.9270 -14.9223 -14.9209 -14.9181 -14.9040 -14.9038 -14.8926
   -14.8829 -14.8827 -14.8703 -14.8676 -14.8533 -14.8487 -14.8342 -14.8266
   -12.8575  -8.8848  -8.5989  -7.4944  -7.0058  -6.1671  -6.0082  -5.4020
    -5.1105  -4.8406  -4.6050  -3.3959  -3.1289  -2.7535  -1.4300  -1.4102
    -0.7732  -0.3329  -0.3097  -0.3028  -0.0540   0.3701   1.0266   1.2826
     1.3284   1.8707   2.0240   2.3365   2.5151   2.6367   2.7922

     the Fermi energy is     0.0784 ev

!    total energy              =   -5023.53054203 Ry
     Harris-Foulkes estimate   =   -5023.53054149 Ry
     estimated scf accuracy    <       0.00000003 Ry

     The total energy is the sum of the following terms:

     one-electron contribution =  -27831.08878975 Ry
     hartree contribution      =   13920.92481867 Ry
     xc contribution           =    -605.38666901 Ry
     ewald contribution        =    9492.05346495 Ry
     electric field correction =       0.00015482 Ry
     smearing contrib. (-TS)   =      -0.03352171 Ry

     convergence has been achieved in   7 iterations

 BEEF-vdW xc energy contributions
           1 :   -540.928491593248
           2 :    490.952273284656
           3 :   -407.104101469808
           4 :    313.673323567901
           5 :   -232.224541611522
           6 :    173.539373207030
           7 :   -136.034432523921
           8 :    110.468118518109
           9 :   -87.3730854519771
          10 :    62.6019672499426
          11 :   -38.1886826433168
          12 :    18.9921667453515
          13 :   -8.14277868069428
          14 :    4.56762785677472
          15 :   -3.95317329678346
          16 :    1.93898419340815
          17 :    3.03466775566460
          18 :   -9.21485925338868
          19 :    13.4410231517489
          20 :   -13.8159980321501
          21 :    11.1181212688397
          22 :   -8.05639688530289
          23 :    7.13207790146680
          24 :   -8.82605672135571
          25 :    11.4391912399890
          26 :   -12.5806109079316
          27 :    11.0692210484303
          28 :   -7.79573881798353
          29 :    4.96602549425199
          30 :   -4.39265738032327
          31 :   -40.1960166424905
          32 :   -27.3152796737221

     Forces acting on atoms (Ry/au):

     negative rho (up, down):  9.528E-04 0.000E+00
     atom    1 type  1   force =     0.00000000   -0.00000004    0.00471938
     atom    2 type  1   force =    -0.00000012   -0.00075293    0.00298638
     atom    3 type  1   force =    -0.00065179    0.00037673    0.00298532
     atom    4 type  1   force =     0.00065175    0.00037668    0.00298632
     atom    5 type  1   force =     0.00205532   -0.00118658    0.00267142
     atom    6 type  1   force =    -0.00205488   -0.00118628    0.00267383
     atom    7 type  1   force =     0.00000002    0.00000047   -0.01770720
     atom    8 type  1   force =    -0.00000015    0.00237265    0.00267339
     atom    9 type  1   force =    -0.00094678   -0.00054537   -0.00098900
     atom   10 type  1   force =     0.00094678   -0.00054539   -0.00098968
     atom   11 type  1   force =    -0.00000005    0.00108652   -0.00098770
     atom   12 type  1   force =    -0.00000011   -0.00000075   -0.00161054
     atom   13 type  2   force =    -0.00000000    0.00000429    0.00058810

     Total force =     0.003073     Total SCF correction =     0.000909
     SCF correction compared to forces is large: reduce conv_thr to get better values

     entering subroutine stress ...

     negative rho (up, down):  9.528E-04 0.000E+00
          total   stress  (Ry/bohr**3)                   (kbar)     P=   -4.41
  -0.00003430  -0.00000000   0.00000000         -5.05     -0.00      0.00
  -0.00000000  -0.00003430   0.00000000         -0.00     -5.05      0.00
   0.00000000   0.00000000  -0.00002143          0.00      0.00     -3.15

     bfgs converged in  15 scf cycles and  14 bfgs steps
     (criteria: energy <  1.0E+00, force <  1.9E-03)

     End of BFGS Geometry Optimization

     Final energy   =   -5023.5305420263 Ry
Begin final coordinates

ATOMIC_POSITIONS (crystal)
Ga1      0.166666667   0.166666667   0.400460194    0   0   0
Ga1      0.666666667   0.166666667   0.400460194    0   0   0
Ga1      0.166666667   0.666666667   0.400460194    0   0   0
Ga1      0.666666667   0.666666667   0.400460194    0   0   0
Ga1      0.833333333   0.333333333   0.500000000    0   0   0
Ga1      0.333333333   0.333333333   0.500000000    0   0   0
Ga1      0.833333333   0.833333333   0.500000000    0   0   0
Ga1      0.333333333   0.833333333   0.500000000    0   0   0
Ga1     -0.012102213  -0.012102072   0.598055068
Ga1      0.524203216  -0.012102758   0.598055284
Ga1     -0.012105500   0.524210394   0.598054651
Ga1      0.499999390   0.500000909   0.593398748
S1       0.166667083   0.166664080   0.658798394
End final coordinates

     Writing output data file calc.save

     General routines

     Parallel routines

   This run was terminated on:  22: 7:55   3May2018

   JOB DONE.
Job  /afs/slac/g/suncat/bin/suncat-tsmpirun -x LD_LIBRARY_PATH -wdir /scratch/qe845265_A7Crp pw.x -npool 4 -in pw.inp

TID   HOST_NAME   COMMAND_LINE            STATUS            TERMINATION_TIME
00000 suncat0019 pw.x -npool 4 -i  Done                     05/03/2018 22:07:55
00001 suncat0019 pw.x -npool 4 -i  Done                     05/03/2018 22:07:55
00002 suncat0019 pw.x -npool 4 -i  Done                     05/03/2018 22:07:55
00003 suncat0019 pw.x -npool 4 -i  Done                     05/03/2018 22:07:55
00004 suncat0019 pw.x -npool 4 -i  Done                     05/03/2018 22:07:55
00005 suncat0019 pw.x -npool 4 -i  Done                     05/03/2018 22:07:55
00006 suncat0019 pw.x -npool 4 -i  Done                     05/03/2018 22:07:55
00007 suncat0019 pw.x -npool 4 -i  Done                     05/03/2018 22:07:55
00008 suncat0192 pw.x -npool 4 -i  Done                     05/03/2018 22:07:55
00009 suncat0192 pw.x -npool 4 -i  Done                     05/03/2018 22:07:55
00010 suncat0192 pw.x -npool 4 -i  Done                     05/03/2018 22:07:55
00011 suncat0192 pw.x -npool 4 -i  Done                     05/03/2018 22:07:55
00012 suncat0192 pw.x -npool 4 -i  Done                     05/03/2018 22:07:55
00013 suncat0192 pw.x -npool 4 -i  Done                     05/03/2018 22:07:55
00014 suncat0192 pw.x -npool 4 -i  Done                     05/03/2018 22:07:55
00015 suncat0192 pw.x -npool 4 -i  Done                     05/03/2018 22:07:55
00016 suncat0137 pw.x -npool 4 -i  Done                     05/03/2018 22:07:55
00017 suncat0137 pw.x -npool 4 -i  Done                     05/03/2018 22:07:55
00018 suncat0137 pw.x -npool 4 -i  Done                     05/03/2018 22:07:55
00019 suncat0137 pw.x -npool 4 -i  Done                     05/03/2018 22:07:55
00020 suncat0137 pw.x -npool 4 -i  Done                     05/03/2018 22:07:55
00021 suncat0137 pw.x -npool 4 -i  Done                     05/03/2018 22:07:55
00022 suncat0137 pw.x -npool 4 -i  Done                     05/03/2018 22:07:55
00023 suncat0137 pw.x -npool 4 -i  Done                     05/03/2018 22:07:55
00024 suncat0134 pw.x -npool 4 -i  Done                     05/03/2018 22:07:55
00025 suncat0134 pw.x -npool 4 -i  Done                     05/03/2018 22:07:55
00026 suncat0134 pw.x -npool 4 -i  Done                     05/03/2018 22:07:55
00027 suncat0134 pw.x -npool 4 -i  Done                     05/03/2018 22:07:55
00028 suncat0134 pw.x -npool 4 -i  Done                     05/03/2018 22:07:55
00029 suncat0134 pw.x -npool 4 -i  Done                     05/03/2018 22:07:55
00030 suncat0134 pw.x -npool 4 -i  Done                     05/03/2018 22:07:55
00031 suncat0134 pw.x -npool 4 -i  Done                     05/03/2018 22:07:55