     Program PWSCF v.5.1rc2 (svn rev. 11289) starts on 30Jan2018 at 22: 7:29

     Current dimensions of program PWSCF are:
     Max number of different atomic species (ntypx) = 10
     Max number of k-points (npk) =  40000
     Max angular momentum in pseudopotentials (lmaxx) =  3
     Presently stress not available with electric field

     IMPORTANT: XC functional enforced from input :
     Exchange-correlation      = BEEF-VDW ( 1  4 27 13 2)
     Any further DFT definition will be discarded
     Please, verify this is what you really want

     Subspace diagonalization in iterative solution of the eigenvalue problem:
     a serial algorithm will be used

     bravais-lattice index     =            0
     lattice parameter (alat)  =       1.8897  a.u.
     unit-cell volume          =    6117.3319 (a.u.)^3
     number of atoms/cell      =           13
     number of atomic types    =            2
     number of electrons       =       150.00
     number of Kohn-Sham states=           85
     kinetic-energy cutoff     =      36.7493  Ry
     charge density cutoff     =     367.4932  Ry
     convergence threshold     =      1.0E-05
     mixing beta               =       0.3000
     number of iterations used =           10  plain     mixing
     Exchange-correlation      = BEEF-VDW ( 1  4 27 13 2)
     nstep                     =           50

     celldm(1)=   1.889726  celldm(2)=   0.000000  celldm(3)=   0.000000
     celldm(4)=   0.000000  celldm(5)=   0.000000  celldm(6)=   0.000000

     crystal axes: (cart. coord. in units of alat)
               a(1) = (   6.437717   0.000000   0.000000 )
               a(2) = (   3.218859   5.575227   0.000000 )
               a(3) = (   0.000000   0.000000  25.256374 )

     reciprocal axes: (cart. coord. in units 2 pi/alat)
               b(1) = (  0.155335 -0.089682  0.000000 )
               b(2) = (  0.000000  0.179365  0.000000 )
               b(3) = (  0.000000  0.000000  0.039594 )

     PseudoPot. # 1 for Hg read from file:
     /afs/slac.stanford.edu/u/if/mamunm/psp/gbrv1.5pbe/Hg.UPF
     MD5 check sum: 8f42caffe07f7fd9c0a564347f8c5498
     Pseudo is Ultrasoft + core correction, Zval = 12.0
     Generated by new atomic code, or converted to UPF format
     Using radial grid of  985 points,  6 beta functions with:
                l(1) =   0
                l(2) =   0
                l(3) =   1
                l(4) =   1
                l(5) =   2
                l(6) =   2
     Q(r) pseudized with  8 coefficients,  rinner =    2.000   2.000   2.000
                                                       2.000   2.000

     PseudoPot. # 2 for S  read from file:
     /afs/slac.stanford.edu/u/if/mamunm/psp/gbrv1.5pbe/S.UPF
     MD5 check sum: 88d86576ff6df21479756cfb9bdac1df
     Pseudo is Ultrasoft + core correction, Zval =  6.0
     Generated by new atomic code, or converted to UPF format
     Using radial grid of  907 points,  6 beta functions with:
                l(1) =   0
                l(2) =   0
                l(3) =   1
                l(4) =   1
                l(5) =   2
                l(6) =   2
     Q(r) pseudized with  8 coefficients,  rinner =    1.300   1.300   1.300
                                                       1.300   1.300

     vdW kernel table read from file vdW_kernel_table
     MD5 check sum: 095c7af220d748ca6e76c0b4c6cfb241

     atomic species   valence    mass     pseudopotential
        Hg1           12.00   200.59200     Hg( 1.00)
        S1             6.00    32.06000     S ( 1.00)

     No symmetry found

   Cartesian axes

     site n.     atom                  positions (alat units)
         1           Hg1 tau(   1) = (   1.6094293   0.9292045  10.0000000  )
         2           Hg1 tau(   2) = (   4.8282880   0.9292045  10.0000000  )
         3           Hg1 tau(   3) = (   3.2188587   3.7168178  10.0000000  )
         4           Hg1 tau(   4) = (   6.4377173   3.7168178  10.0000000  )
         5           Hg1 tau(   5) = (   6.4377173   1.8584089  12.6281871  )
         6           Hg1 tau(   6) = (   3.2188587   1.8584089  12.6281871  )
         7           Hg1 tau(   7) = (   8.0471466   4.6460223  12.6281871  )
         8           Hg1 tau(   8) = (   4.8282880   4.6460223  12.6281871  )
         9           Hg1 tau(   9) = (   0.0000000   0.0000000  15.2563742  )
        10           Hg1 tau(  10) = (   3.2188587   0.0000000  15.2563742  )
        11           Hg1 tau(  11) = (   1.6094293   2.7876134  15.2563742  )
        12           Hg1 tau(  12) = (   4.8282880   2.7876134  15.2563742  )
        13           S1  tau(  13) = (   3.2188587   1.8584089  17.6263742  )

     number of k points=    20  Fermi-Dirac smearing, width (Ry)=  0.0110
                       cart. coord. in units 2pi/alat
        k(    1) = (   0.0000000   0.0000000   0.0000000), wk =   0.0555556
        k(    2) = (   0.0000000   0.0298942   0.0000000), wk =   0.1111111
        k(    3) = (   0.0000000   0.0597883   0.0000000), wk =   0.1111111
        k(    4) = (   0.0000000  -0.0896825   0.0000000), wk =   0.0555556
        k(    5) = (   0.0258891  -0.0149471   0.0000000), wk =   0.1111111
        k(    6) = (   0.0258891   0.0149471   0.0000000), wk =   0.1111111
        k(    7) = (   0.0258891   0.0448412   0.0000000), wk =   0.1111111
        k(    8) = (   0.0258891  -0.1046295   0.0000000), wk =   0.1111111
        k(    9) = (   0.0258891  -0.0747354   0.0000000), wk =   0.1111111
        k(   10) = (   0.0258891  -0.0448412   0.0000000), wk =   0.1111111
        k(   11) = (   0.0517782  -0.0298942   0.0000000), wk =   0.1111111
        k(   12) = (   0.0517782   0.0000000   0.0000000), wk =   0.1111111
        k(   13) = (   0.0517782   0.0298942   0.0000000), wk =   0.1111111
        k(   14) = (   0.0517782  -0.1195766   0.0000000), wk =   0.1111111
        k(   15) = (   0.0517782  -0.0896825   0.0000000), wk =   0.1111111
        k(   16) = (   0.0517782  -0.0597883   0.0000000), wk =   0.1111111
        k(   17) = (  -0.0776673   0.0448412   0.0000000), wk =   0.0555556
        k(   18) = (  -0.0776673   0.0747354   0.0000000), wk =   0.1111111
        k(   19) = (  -0.0776673   0.1046295   0.0000000), wk =   0.1111111
        k(   20) = (  -0.0776673  -0.0448412   0.0000000), wk =   0.0555556

     Largest allocated arrays     est. size (Mb)     dimensions
     Largest temporary arrays     est. size (Mb)     dimensions

     Initial potential from superposition of free atoms

     starting charge  149.99926, renormalised to  150.00000

     negative rho (up, down):  8.323E-05 0.000E+00

     *
     * You are using vdW-DF for exchange-correlation in this calculation.
     * Please cite the following three references that made this development
     * possible:
     *
     *   M. Dion, H. Rydberg, E. Schroder, D. C. Langreth, and
     *   B. I. Lundqvist, Phys. Rev. Lett. 92, 246401 (2004).
     *
     *   T. Thonhauser, V. R. Cooper, S. Li, A. Puzder, P. Hyldgaard, and
     *   D. C. Langreth, Phys. Rev. B 76, 125112 (2007).
     *
     *   G. Roman-Perez and J. M. Soler, Phys. Rev. Lett. 103, 096102 (2009).
     *
     *
     * If you are using vdW-DF2, please also cite:
     *
     *   K. Lee, E. D. Murray, L. Kong, B. I. Lundqvist, and
     *   D. C. Langreth, Phys. Rev. B 82, 081101(R) (2010).
     *
     *
     * If you are calculating the stress with vdW-DF, please also cite:
     *
     *   R. Sabatini, E. Kucukbenli, B. Kolb, T. Thonhauser, and
     *   S. de Gironcoli, J. Phys.: Condens. Matter 24, 424209 (2012).
     *

     Carrying out vdW-DF run using the following parameters:

     Nqs =      20    Nr_points =    1024   r_max =   100.000
     q_mesh =
               0.00001000     0.04494208     0.09755937     0.15916263
               0.23128650     0.31572767     0.41458969     0.53033537
               0.66584808     0.82450364     1.01025438     1.22772762
               1.48234092     1.78043706     2.12944203     2.53805004
               3.01644009     3.57652955     4.23227104     5.00000000

     Gradients computed in reciprocal space

     Adding external electric field

     Computed dipole along edir(3) :
        Dipole                0.0001 Ry au,          0.0002 Debye
        Dipole field          0.0000 Ry au

        Potential amp.       -0.0000 Ry
        Total length         46.5344 bohr

     Starting wfc are  112 randomized atomic wfcs

     Self-consistent Calculation

     iteration #  1     ecut=    36.75 Ry     beta=0.30
     Davidson diagonalization with overlap
     ethr =  1.00E-02,  avg # of iterations =  4.8

[...]

     total energy              =   -1332.58893316 Ry
     Harris-Foulkes estimate   =   -1333.62750673 Ry
     estimated scf accuracy    <       2.20297424 Ry

[...]

     End of self-consistent calculation

          k = 0.0000 0.0000 0.0000 ( 23031 PWs)   bands (ev):

   -11.0596  -8.4733  -7.9866  -7.9866  -7.9859  -7.9705  -7.8349  -7.8349
    -7.8294  -7.7641  -7.7444  -7.7444  -7.7418  -7.6104  -7.6027  -7.6027
    -7.1944  -7.1944  -7.1821  -7.1806  -7.1806  -7.1326  -7.0978  -7.0978
    -7.0892  -7.0183  -7.0183  -7.0047  -7.0034  -7.0034  -6.8992  -6.8992
    -6.5517  -6.5517  -6.4635  -6.4635  -6.4495  -6.4407  -6.4407  -6.4269
    -6.2723  -6.2723  -6.2721  -6.2634  -6.2634  -6.1559  -6.1519  -6.1519
    -6.1464  -6.0855  -6.0855  -6.0621  -6.0620  -6.0620  -6.0271  -6.0271
    -6.0031  -5.8955  -5.8708  -5.8708  -5.8279  -5.8206  -5.8206  -3.7145
    -2.0811  -1.9987  -1.9987  -1.9498  -1.9498  -1.8897  -1.2837  -1.2531
    -1.2531  -0.4941  -0.4117  -0.4117  -0.3561  -0.0452  -0.0452   0.5464
     1.3142   1.6385   1.6385   1.6567   1.6567

[...]

          k =-0.0777 0.0448 0.0000 ( 23032 PWs)   bands (ev):

[...]

     the Fermi energy is    -0.0943 ev

!    total energy              =   -1333.52625974 Ry
     Harris-Foulkes estimate   =   -1333.52631117 Ry
     estimated scf accuracy    <       0.00000298 Ry

     The total energy is the sum of the following terms:

     one-electron contribution =   -8185.67976701 Ry
     hartree contribution      =    4184.86661580 Ry
     xc contribution           =    -494.03247696 Ry
     ewald contribution        =    3161.35401728 Ry
     electric field correction =       0.00087300 Ry
     smearing contrib. (-TS)   =      -0.03552184 Ry

     convergence has been achieved in  11 iterations

 BEEF-vdW xc energy contributions
           1 :   -432.749741791393
           2 :    397.593650443877
           3 :   -336.731841616529
           4 :    264.911996102742
           5 :   -196.666818577181
           6 :    141.932318966015
           7 :   -104.094634752479
           8 :    80.7298826983864
           9 :   -66.2784354730403
          10 :    55.2082874799895
          11 :   -44.2389226544093
          12 :    32.8604566212222
          13 :   -22.3520294801694
          14 :    14.2003989046324
          15 :   -8.91790136650275
          16 :    5.79798917987762
          17 :   -3.51244536754973
          18 :    1.00959268092788
          19 :    1.89353672616028
          20 :   -4.55814088090762
          21 :    6.10803437079920
          22 :   -6.12817214415685
[...]

[...]

     Total force =     0.059915     Total SCF correction =     0.004077

[...]

   This run was terminated on:  23: 8:26  30Jan2018

[...]

   This run was terminated on:  23:19: 2  30Jan2018

[...]

     Program PWSCF v.5.1rc2 (svn rev. 11289) starts on 30Jan2018 at 23:50:20

[...]

     Program PWSCF v.5.1rc2 (svn rev. 11289) starts on 31Jan2018 at  0: 0:10

[...]

   This run was terminated on:   0: 8:11  31Jan2018

[...]

     Program PWSCF v.5.1rc2 (svn rev. 11289) starts on 31Jan2018 at  0:10: 1

     Current dimensions of program PWSCF are:
     Max number of different atomic species (ntypx) = 10
     Max number of k-points (npk) =  40000
     Max angular momentum in pseudopotentials (lmaxx) =  3
     Presently stress not available with electric field

     IMPORTANT: XC functional enforced from input :
     Exchange-correlation      = BEEF-VDW ( 1  4 27 13 2)
     Any further DFT definition will be discarded
     Please, verify this is what you really want

     Subspace diagonalization in iterative solution of the eigenvalue problem:
     a serial algorithm will be used

     bravais-lattice index     =            0
     lattice parameter (alat)  =       1.8897  a.u.
     unit-cell volume          =    6117.3319 (a.u.)^3
     number of atoms/cell      =           13
     number of atomic types    =            2
     number of electrons       =       150.00
     number of Kohn-Sham states=           85
     kinetic-energy cutoff     =      36.7493  Ry
     charge density cutoff     =     367.4932  Ry
     convergence threshold     =      1.0E-05
     mixing beta               =       0.3000
     number of iterations used =           10  plain     mixing
     Exchange-correlation      = BEEF-VDW ( 1  4 27 13 2)
     nstep                     =           50

     celldm(1)=   1.889726  celldm(2)=   0.000000  celldm(3)=   0.000000
     celldm(4)=   0.000000  celldm(5)=   0.000000  celldm(6)=   0.000000

     crystal axes: (cart. coord. in units of alat)
               a(1) = (   6.437717   0.000000   0.000000 )
               a(2) = (   3.218859   5.575227   0.000000 )
               a(3) = (   0.000000   0.000000  25.256374 )

     reciprocal axes: (cart. coord. in units 2 pi/alat)
               b(1) = (  0.155335 -0.089682  0.000000 )
               b(2) = (  0.000000  0.179365  0.000000 )
               b(3) = (  0.000000  0.000000  0.039594 )

     PseudoPot. # 1 for Hg read from file:
     /afs/slac.stanford.edu/u/if/mamunm/psp/gbrv1.5pbe/Hg.UPF
     MD5 check sum: 8f42caffe07f7fd9c0a564347f8c5498
     Pseudo is Ultrasoft + core correction, Zval = 12.0
     Generated by new atomic code, or converted to UPF format
     Using radial grid of  985 points,  6 beta functions with:
                l(1) =   0
                l(2) =   0
                l(3) =   1
                l(4) =   1
                l(5) =   2
                l(6) =   2
     Q(r) pseudized with  8 coefficients,  rinner =    2.000   2.000   2.000
                                                       2.000   2.000

     PseudoPot. # 2 for S  read from file:
     /afs/slac.stanford.edu/u/if/mamunm/psp/gbrv1.5pbe/S.UPF
     MD5 check sum: 88d86576ff6df21479756cfb9bdac1df
     Pseudo is Ultrasoft + core correction, Zval =  6.0
     Generated by new atomic code, or converted to UPF format
     Using radial grid of  907 points,  6 beta functions with:
                l(1) =   0
                l(2) =   0
                l(3) =   1
                l(4) =   1
                l(5) =   2
                l(6) =   2
     Q(r) pseudized with  8 coefficients,  rinner =    1.300   1.300   1.300
                                                       1.300   1.300

     vdW kernel table read from file vdW_kernel_table
     MD5 check sum: 095c7af220d748ca6e76c0b4c6cfb241

     atomic species   valence    mass     pseudopotential
        Hg1           12.00   200.59200     Hg( 1.00)
        S1             6.00    32.06000     S ( 1.00)

     No symmetry found

   Cartesian axes

     site n.     atom                  positions (alat units)
         1           Hg1 tau(   1) = (   1.6094293   0.9292045  10.0000000  )
         2           Hg1 tau(   2) = (   4.8282880   0.9292045  10.0000000  )
         3           Hg1 tau(   3) = (   3.2188587   3.7168178  10.0000000  )
         4           Hg1 tau(   4) = (   6.4377173   3.7168178  10.0000000  )
         5           Hg1 tau(   5) = (   6.4377173   1.8584089  12.6281871  )
         6           Hg1 tau(   6) = (   3.2188587   1.8584089  12.6281871  )
         7           Hg1 tau(   7) = (   8.0471466   4.6460223  12.6281871  )
         8           Hg1 tau(   8) = (   4.8282880   4.6460223  12.6281871  )
         9           Hg1 tau(   9) = (   6.4377034   0.0000902  15.5683440  )
        10           Hg1 tau(  10) = (   6.4377445   5.4260735  15.6945076  )
        11           Hg1 tau(  11) = (   7.9178736   2.8621113  15.6942952  )
        12           Hg1 tau(  12) = (   4.9572967   2.8621642  15.6943198  )
        13           S1  tau(  13) = (   3.2188492   1.8583966  17.3762152  )

     number of k points=    20  Fermi-Dirac smearing, width (Ry)=  0.0110
                       cart. coord. in units 2pi/alat
        k(    1) = (   0.0000000   0.0000000   0.0000000), wk =   0.0555556
        k(    2) = (   0.0000000   0.0298942   0.0000000), wk =   0.1111111
        k(    3) = (   0.0000000   0.0597883   0.0000000), wk =   0.1111111
        k(    4) = (   0.0000000  -0.0896825   0.0000000), wk =   0.0555556
        k(    5) = (   0.0258891  -0.0149471   0.0000000), wk =   0.1111111
        k(    6) = (   0.0258891   0.0149471   0.0000000), wk =   0.1111111
        k(    7) = (   0.0258891   0.0448412   0.0000000), wk =   0.1111111
        k(    8) = (   0.0258891  -0.1046295   0.0000000), wk =   0.1111111
        k(    9) = (   0.0258891  -0.0747354   0.0000000), wk =   0.1111111
        k(   10) = (   0.0258891  -0.0448412   0.0000000), wk =   0.1111111
        k(   11) = (   0.0517782  -0.0298942   0.0000000), wk =   0.1111111
        k(   12) = (   0.0517782   0.0000000   0.0000000), wk =   0.1111111
        k(   13) = (   0.0517782   0.0298942   0.0000000), wk =   0.1111111
        k(   14) = (   0.0517782  -0.1195766   0.0000000), wk =   0.1111111
        k(   15) = (   0.0517782  -0.0896825   0.0000000), wk =   0.1111111
        k(   16) = (   0.0517782  -0.0597883   0.0000000), wk =   0.1111111
        k(   17) = (  -0.0776673   0.0448412   0.0000000), wk =   0.0555556
        k(   18) = (  -0.0776673   0.0747354   0.0000000), wk =   0.1111111
        k(   19) = (  -0.0776673   0.1046295   0.0000000), wk =   0.1111111
        k(   20) = (  -0.0776673  -0.0448412   0.0000000), wk =   0.0555556

     Largest allocated arrays     est. size (Mb)     dimensions
     Largest temporary arrays     est. size (Mb)     dimensions

     Initial potential from superposition of free atoms

     starting charge  149.99926, renormalised to  150.00000

[...]

     *
     * You are using vdW-DF for exchange-correlation in this calculation.
     * Please cite the following three references that made this development
     * possible:
     *
     *   M. Dion, H. Rydberg, E. Schroder, D. C. Langreth, and
     *   B. I. Lundqvist, Phys. Rev. Lett. 92, 246401 (2004).
     *
     *   T. Thonhauser, V. R. Cooper, S. Li, A. Puzder, P. Hyldgaard, and
     *   D. C. Langreth, Phys. Rev. B 76, 125112 (2007).
     *
     *   G. Roman-Perez and J. M. Soler, Phys. Rev. Lett. 103, 096102 (2009).
     *
     *
     * If you are using vdW-DF2, please also cite:
     *
     *   K. Lee, E. D. Murray, L. Kong, B. I. Lundqvist, and
     *   D. C. Langreth, Phys. Rev. B 82, 081101(R) (2010).
     *
     *
     * If you are calculating the stress with vdW-DF, please also cite:
     *
     *   R. Sabatini, E. Kucukbenli, B. Kolb, T. Thonhauser, and
     *   S. de Gironcoli, J. Phys.: Condens. Matter 24, 424209 (2012).
     *

     Carrying out vdW-DF run using the following parameters:

     Nqs =      20    Nr_points =    1024   r_max =   100.000
     q_mesh =
               0.00001000     0.04494208     0.09755937     0.15916263
               0.23128650     0.31572767     0.41458969     0.53033537
               0.66584808     0.82450364     1.01025438     1.22772762
               1.48234092     1.78043706     2.12944203     2.53805004
               3.01644009     3.57652955     4.23227104     5.00000000

     Gradients computed in reciprocal space

[...]

     Starting wfc are  112 randomized atomic wfcs

     Self-consistent Calculation

[...]

     Threshold (ethr) on eigenvalues was too large:
     Diagonalizing with lowered threshold

     Davidson diagonalization with overlap
     ethr =  5.54E-04,  avg # of iterations =  4.6

[...]

     total energy              =   -1333.59235459 Ry
     Harris-Foulkes estimate   =   -1333.59236465 Ry
     estimated scf accuracy    <       0.00007649 Ry

     iteration #  9     ecut=    36.75 Ry     beta=0.30
     Davidson diagonalization with overlap
     ethr =  5.10E-08,  avg # of iterations =  2.0

[...]

     negative rho (up, down):  9.133E-05 0.000E+00

     Adding external electric field

     Computed dipole along edir(3) :
        Dipole               -0.2778 Ry au,         -0.7060 Debye
        Dipole field         -0.0006 Ry au

        Potential amp.        0.0531 Ry
        Total length         46.5344 bohr

     End of self-consistent calculation

[...]

          k = 0.0518-0.0598 0.0000 ( 23014 PWs)   bands (ev):

[...]

          k =-0.0777-0.0448 0.0000 ( 23032 PWs)   bands (ev):

   -12.1472  -7.5035  -7.2054  -7.1821  -7.1523  -7.1446  -7.1161  -7.0593
    -7.0032  -6.9843  -6.9716  -6.9685  -6.9197  -6.9004  -6.8626  -6.8613
    -6.7977  -6.7924  -6.7034  -6.7033  -6.6740  -6.6698  -6.6156  -6.5782
    -6.5609  -6.5500  -6.5158  -6.4883  -6.4597  -6.4189  -6.4056  -6.4029
    -6.3534  -6.3359  -6.3080  -6.3037  -6.2960  -6.2549  -6.2331  -6.2280
    -6.1840  -6.1528  -6.1293  -6.1183  -6.1148  -6.0990  -6.0689  -6.0402
    -6.0322  -6.0159  -6.0066  -5.9086  -5.8907  -5.8810  -5.8715  -5.7999
    -5.7436  -5.7269  -5.6834  -5.6668  -5.6387  -5.5438  -5.5260  -4.8840
    -4.3872  -3.1161  -2.9672  -2.7682  -2.6801  -2.4594  -2.0122  -1.2226
    -0.7889  -0.4407   0.5252   0.5988   1.8824   2.0548   2.8486   2.9189
     3.1406   3.4420   3.7681   3.9449   4.0832

     the Fermi energy is     0.3930 ev

!    total energy              =   -1333.59235850 Ry
     Harris-Foulkes estimate   =   -1333.59237421 Ry
     estimated scf accuracy    <       0.00000831 Ry

     The total energy is the sum of the following terms:

     one-electron contribution =   -7806.56653580 Ry
     hartree contribution      =    3996.80726310 Ry
     xc contribution           =    -494.05361353 Ry
     ewald contribution        =    2970.25179745 Ry
     electric field correction =       0.00015851 Ry
     smearing contrib. (-TS)   =      -0.03142823 Ry

     convergence has been achieved in   9 iterations

 BEEF-vdW xc energy contributions
           1 :   -432.763825790785
           2 :    397.546071979003
           3 :   -336.611641967311
           4 :    264.793583996612
           5 :   -196.666500696841
           6 :    142.101271405454
           7 :   -104.347002860802
           8 :    80.8795209653787
           9 :   -66.1703019985571
          10 :    54.8471083085703
          11 :   -43.8108731934998
          12 :    32.6212466167079
          13 :   -22.4539185019937
          14 :    14.5795404849311
          15 :   -9.32695809398808
          16 :    5.96899104441434
          17 :   -3.34025054912672
          18 :   0.625807305946182
          19 :    2.21033513138434
          20 :   -4.57524432129838
          21 :    5.80166054211634
          22 :   -5.70289602508336
          23 :    4.76553871244295
          24 :   -3.88455552596065
          25 :    3.83789942725468
          26 :   -4.84194575043659
          27 :    6.45033287547233
          28 :   -7.83697570754117
          29 :    8.27795322717304
          30 :   -7.54947337535600
          31 :   -40.4755162264345
          32 :   -29.6492694962140

     Forces acting on atoms (Ry/au):

     negative rho (up, down):  9.133E-05 0.000E+00
     atom    1 type  1   force =    -0.00033928   -0.00019381   -0.02061470
     atom    2 type  1   force =     0.00033414   -0.00018922   -0.02061296
     atom    3 type  1   force =    -0.00000481    0.00038312   -0.02062460
     atom    4 type  1   force =    -0.00000290   -0.00000507   -0.02129314
     atom    5 type  1   force =     0.00000220    0.00074746    0.01839263
     atom    6 type  1   force =     0.00000185    0.00000656    0.02775025
     atom    7 type  1   force =    -0.00063198   -0.00037383    0.01840648
     atom    8 type  1   force =     0.00064919   -0.00036959    0.01840180
     atom    9 type  1   force =    -0.00000207   -0.00000846   -0.00169182
     atom   10 type  1   force =    -0.00000072   -0.00038387    0.00078405
     atom   11 type  1   force =    -0.00031146    0.00018688    0.00078406
     atom   12 type  1   force =     0.00031182    0.00019843    0.00075956
     atom   13 type  2   force =    -0.00000598    0.00000140   -0.00044161

     Total force =     0.059345     Total SCF correction =     0.015987
     SCF correction compared to forces is large: reduce conv_thr to get better values

     entering subroutine stress ...

     negative rho (up, down):  9.133E-05 0.000E+00
          total   stress  (Ry/bohr**3)                   (kbar)     P=   16.91
   0.00013477  -0.00000000  -0.00000001         19.83     -0.00     -0.00
  -0.00000000   0.00013477   0.00000000         -0.00     19.83      0.00
  -0.00000001   0.00000000   0.00007529         -0.00      0.00     11.08

 !ASE

     Writing output data file calc.save

     General routines

     Parallel routines

   This run was terminated on:   0:17:59  31Jan2018

   JOB DONE.
Job  /afs/slac/g/suncat/bin/suncat-tsmpirun -x LD_LIBRARY_PATH -wdir /scratch/qe704196_JsB1F pw.x -in pw.inp

TID   HOST_NAME   COMMAND_LINE            STATUS            TERMINATION_TIME
00000 suncat0141 pw.x -in pw.inp   Done                     01/31/2018 00:17:59
00001 suncat0141 pw.x -in pw.inp   Done                     01/31/2018 00:17:59
00002 suncat0141 pw.x -in pw.inp   Done                     01/31/2018 00:17:59
00003 suncat0141 pw.x -in pw.inp   Done                     01/31/2018 00:17:59
00004 suncat0141 pw.x -in pw.inp   Done                     01/31/2018 00:17:59
00005 suncat0141 pw.x -in pw.inp   Done                     01/31/2018 00:17:59
00006 suncat0141 pw.x -in pw.inp   Done                     01/31/2018 00:17:59
00007 suncat0141 pw.x -in pw.inp   Done                     01/31/2018 00:17:59
00008 suncat0121 pw.x -in pw.inp   Done                     01/31/2018 00:17:59
00009 suncat0121 pw.x -in pw.inp   Done                     01/31/2018 00:17:59
00010 suncat0121 pw.x -in pw.inp   Done                     01/31/2018 00:17:59
00011 suncat0121 pw.x -in pw.inp   Done                     01/31/2018 00:17:59
00012 suncat0121 pw.x -in pw.inp   Done                     01/31/2018 00:17:59
00013 suncat0121 pw.x -in pw.inp   Done                     01/31/2018 00:17:59
00014 suncat0121 pw.x -in pw.inp   Done                     01/31/2018 00:17:59
00015 suncat0121 pw.x -in pw.inp   Done                     01/31/2018 00:17:59
00016 suncat0117 pw.x -in pw.inp   Done                     01/31/2018 00:17:59
00017 suncat0117 pw.x -in pw.inp   Done                     01/31/2018 00:17:59
00018 suncat0117 pw.x -in pw.inp   Done                     01/31/2018 00:17:59
00019 suncat0117 pw.x -in pw.inp   Done                     01/31/2018 00:17:59
00020 suncat0117 pw.x -in pw.inp   Done                     01/31/2018 00:17:59
00021 suncat0117 pw.x -in pw.inp   Done                     01/31/2018 00:17:59
00022 suncat0117 pw.x -in pw.inp   Done                     01/31/2018 00:17:59
00023 suncat0117 pw.x -in pw.inp   Done                     01/31/2018 00:17:59
00024 suncat0251 pw.x -in pw.inp   Done                     01/31/2018 00:17:59
00025 suncat0251 pw.x -in pw.inp   Done                     01/31/2018 00:17:59
00026 suncat0251 pw.x -in pw.inp   Done                     01/31/2018 00:17:59
00027 suncat0251 pw.x -in pw.inp   Done                     01/31/2018 00:17:59
00028 suncat0251 pw.x -in pw.inp   Done                     01/31/2018 00:17:59
00029 suncat0251 pw.x -in pw.inp   Done                     01/31/2018 00:17:59
00030 suncat0251 pw.x -in pw.inp   Done                     01/31/2018 00:17:59
00031 suncat0251 pw.x -in pw.inp   Done                     01/31/2018 00:17:59