     Program PWSCF v.5.1rc2 (svn rev. 11289) starts on 23Apr2018 at  4:12:33

     Current dimensions of program PWSCF are:
     Max number of different atomic species (ntypx) = 10
     Max number of k-points (npk) =  40000
     Max angular momentum in pseudopotentials (lmaxx) =  3
     Presently stress not available with electric field

     IMPORTANT: XC functional enforced from input :
     Exchange-correlation      = BEEF-VDW ( 1  4 27 13 2)
     Any further DFT definition will be discarded
     Please, verify this is what you really want

     Subspace diagonalization in iterative solution of the eigenvalue problem:
     a serial algorithm will be used

     bravais-lattice index     =            0
     lattice parameter (alat)  =       1.8897  a.u.
     unit-cell volume          =    6741.9070 (a.u.)^3
     number of atoms/cell      =           14
     number of atomic types    =            3
     number of electrons       =       174.00
     number of Kohn-Sham states=           97
     kinetic-energy cutoff     =      36.7493  Ry
     charge density cutoff     =     367.4932  Ry
     convergence threshold     =      1.0E-05
     mixing beta               =       0.3000
     number of iterations used =           10  plain     mixing
     Exchange-correlation      = BEEF-VDW ( 1  4 27 13 2)
     nstep                     =           50

     celldm(1)=   1.889726  celldm(2)=   0.000000  celldm(3)=   0.000000
     celldm(4)=   0.000000  celldm(5)=   0.000000  celldm(6)=   0.000000

     crystal axes: (cart. coord. in units of alat)
               a(1) = (   6.726993   0.000000   0.000000 )
               a(2) = (   3.363497   5.825747   0.000000 )
               a(3) = (   0.000000   0.000000  25.492567 )

     reciprocal axes: (cart. coord. in units 2 pi/alat)
               b(1) = (  0.148655 -0.085826  0.000000 )
               b(2) = (  0.000000  0.171652  0.000000 )
               b(3) = (  0.000000  0.000000  0.039227 )

     PseudoPot. # 1 for Sn read from file:
     /u/if/mamunm/psp/gbrv1.5pbe/Sn.UPF
     MD5 check sum: 469debedee59599fedebd795477fea03
     Pseudo is Ultrasoft + core correction, Zval = 14.0
     Generated by new atomic code, or converted to UPF format
     Using radial grid of  891 points,  6 beta functions with:
                l(1) =   0
                l(2) =   0
                l(3) =   1
                l(4) =   1
                l(5) =   2
                l(6) =   2
     Q(r) pseudized with  8 coefficients,  rinner =    1.350   1.350   1.350
                                                       1.350   1.350

     PseudoPot. # 2 for N  read from file:
     /u/if/mamunm/psp/gbrv1.5pbe/N.UPF
     MD5 check sum: 95339753478d7afb44899504a8723017
     Pseudo is Ultrasoft + core correction, Zval =  5.0
     Generated by new atomic code, or converted to UPF format
     Using radial grid of  729 points,  4 beta functions with:
                l(1) =   0
                l(2) =   0
                l(3) =   1
                l(4) =   1
     Q(r) pseudized with  8 coefficients,  rinner =    0.900   0.900   0.900

     PseudoPot. # 3 for H  read from file:
     /u/if/mamunm/psp/gbrv1.5pbe/H.UPF
     MD5 check sum: 761ae9a214b05c3daf00ab9f6b793d6f
     Pseudo is Ultrasoft, Zval =  1.0
     Generated by new atomic code, or converted to UPF format
     Using radial grid of  615 points,  2 beta functions with:
                l(1) =   0
                l(2) =   0
     Q(r) pseudized with  8 coefficients,  rinner =    0.700

     vdW kernel table read from file vdW_kernel_table
     MD5 check sum: 095c7af220d748ca6e76c0b4c6cfb241

     atomic species   valence    mass     pseudopotential
        Sn1           14.00   118.71000     Sn( 1.00)
        N1             5.00    14.00700     N ( 1.00)
        H1             1.00     1.00800     H ( 1.00)

     No symmetry found

   Cartesian axes

     site n.     atom                  positions (alat units)
         1           Sn1 tau(   1) = (   1.6817483   0.9709578  10.0000000  )
         2           Sn1 tau(   2) = (   5.0452448   0.9709578  10.0000000  )
         3           Sn1 tau(   3) = (   3.3634965   3.8838312  10.0000000  )
         4           Sn1 tau(   4) = (   6.7269931   3.8838312  10.0000000  )
         5           Sn1 tau(   5) = (   6.7269931   1.9419156  12.7462834  )
         6           Sn1 tau(   6) = (   3.3634965   1.9419156  12.7462834  )
         7           Sn1 tau(   7) = (   8.4087413   4.8547891  12.7462834  )
         8           Sn1 tau(   8) = (   5.0452448   4.8547891  12.7462834  )
         9           Sn1 tau(   9) = (   0.0000000   0.0000000  15.4925668  )
        10           Sn1 tau(  10) = (   3.3634965   0.0000000  15.4925668  )
        11           Sn1 tau(  11) = (   1.6817483   2.9128734  15.4925668  )
        12           Sn1 tau(  12) = (   5.0452448   2.9128734  15.4925668  )
        13           N1  tau(  13) = (   1.6817483   0.9709578  16.8575668  )
        14           H1  tau(  14) = (   1.6817483   0.9709578  17.9075668  )

     number of k points=    20  Fermi-Dirac smearing, width (Ry)=  0.0110
                       cart. coord. in units 2pi/alat
        k(    1) = (   0.0000000   0.0000000   0.0000000), wk =   0.0555556
        k(    2) = (   0.0000000   0.0286086   0.0000000), wk =   0.1111111
        k(    3) = (   0.0000000   0.0572173   0.0000000), wk =   0.1111111
        k(    4) = (   0.0000000  -0.0858259   0.0000000), wk =   0.0555556
        k(    5) = (   0.0247758  -0.0143043   0.0000000), wk =   0.1111111
        k(    6) = (   0.0247758   0.0143043   0.0000000), wk =   0.1111111
        k(    7) = (   0.0247758   0.0429130   0.0000000), wk =   0.1111111
        k(    8) = (   0.0247758  -0.1001302   0.0000000), wk =   0.1111111
        k(    9) = (   0.0247758  -0.0715216   0.0000000), wk =   0.1111111
        k(   10) = (   0.0247758  -0.0429130   0.0000000), wk =   0.1111111
        k(   11) = (   0.0495516  -0.0286086   0.0000000), wk =   0.1111111
        k(   12) = (   0.0495516   0.0000000   0.0000000), wk =   0.1111111
        k(   13) = (   0.0495516   0.0286086   0.0000000), wk =   0.1111111
        k(   14) = (   0.0495516  -0.1144345   0.0000000), wk =   0.1111111
        k(   15) = (   0.0495516  -0.0858259   0.0000000), wk =   0.1111111
        k(   16) = (   0.0495516  -0.0572173   0.0000000), wk =   0.1111111
        k(   17) = (  -0.0743274   0.0429130   0.0000000), wk =   0.0555556
        k(   18) = (  -0.0743274   0.0715216   0.0000000), wk =   0.1111111
        k(   19) = (  -0.0743274   0.1001302   0.0000000), wk =   0.1111111
        k(   20) = (  -0.0743274  -0.0429130   0.0000000), wk =   0.0555556

     Largest allocated arrays     est. size (Mb)     dimensions
     Largest temporary arrays     est. size (Mb)     dimensions

     Initial potential from superposition of free atoms
     Check: negative starting charge=   -0.001395

     starting charge  161.99944, renormalised to  174.00000

     negative rho (up, down):  1.499E-03 0.000E+00

     *
     * You are using vdW-DF for exchange-correlation in this calculation.
     * Please cite the following three references that made this development
     * possible:
     *
     *   M. Dion, H. Rydberg, E. Schroder, D. C. Langreth, and
     *   B. I. Lundqvist, Phys. Rev. Lett. 92, 246401 (2004).
     *
     *   T. Thonhauser, V. R. Cooper, S. Li, A. Puzder, P. Hyldgaard, and
     *   D. C. Langreth, Phys. Rev. B 76, 125112 (2007).
     *
     *   G. Roman-Perez and J. M. Soler, Phys. Rev. Lett. 103, 096102 (2009).
     *
     *
     * If you are using vdW-DF2, please also cite:
     *
     *   K. Lee, E. D. Murray, L. Kong, B. I. Lundqvist, and
     *   D. C. Langreth, Phys. Rev. B 82, 081101(R) (2010).
     *
     *
     * If you are calculating the stress with vdW-DF, please also cite:
     *
     *   R. Sabatini, E. Kucukbenli, B. Kolb, T. Thonhauser, and
     *   S. de Gironcoli, J. Phys.: Condens. Matter 24, 424209 (2012).
     *

     Carrying out vdW-DF run using the following parameters:

     Nqs =      20    Nr_points =    1024   r_max =   100.000
     q_mesh =
               0.00001000     0.04494208     0.09755937     0.15916263
               0.23128650     0.31572767     0.41458969     0.53033537
               0.66584808     0.82450364     1.01025438     1.22772762
               1.48234092     1.78043706     2.12944203     2.53805004
               3.01644009     3.57652955     4.23227104     5.00000000

     Gradients computed in reciprocal space

     Adding external electric field

     Computed dipole along edir(3) :
        Dipole               -3.6000 Ry au,         -9.1502 Debye
        Dipole field         -0.0067 Ry au

        Potential amp.        0.6303 Ry
        Total length         46.9696 bohr

     Starting wfc are  113 randomized atomic wfcs

     Self-consistent Calculation

     iteration #  1     ecut=    36.75 Ry     beta=0.30
     Davidson diagonalization with overlap
     ethr =  1.00E-02,  avg # of iterations =  8.5

[...]

     total energy              =   -1900.08597280 Ry
     Harris-Foulkes estimate   =   -1953.98289770 Ry
     estimated scf accuracy    <     114.52259606 Ry

[...]

     End of self-consistent calculation

          k = 0.0000 0.0000 0.0000 ( 25377 PWs)   bands (ev):

   -21.1938 -21.1781 -21.1781 -21.1612 -21.1535 -21.1535 -21.1440 -21.1262
   -21.1236 -21.1232 -21.1232 -21.1178 -21.1178 -21.1086 -21.1043 -21.1011
   -21.1011 -21.0982 -21.0982 -21.0938 -21.0938 -21.0857 -21.0829 -21.0829
   -21.0818 -21.0818 -21.0808 -21.0748 -21.0735 -21.0735 -21.0514 -21.0437
   -21.0437 -21.0320 -21.0320 -21.0268 -21.0268 -21.0175 -21.0175 -21.0127
   -20.9838 -20.9782 -20.9782 -20.9774 -20.9716 -20.9716 -20.9712 -20.9613
   -20.9612 -20.9612 -20.9581 -20.9581 -20.9533 -20.9533 -20.9440 -20.9440
   -20.9382 -20.9304 -20.9279 -20.9279 -14.0725  -9.8354  -8.6057  -6.9489
    -5.8730  -5.8730  -5.7794  -5.6295  -5.4402  -5.4402  -4.9972  -4.5390
    -4.5390  -3.9280  -3.2685  -3.2685  -2.8769  -2.3787  -2.1375  -2.1375
    -1.7838  -1.7838  -1.7482  -0.3764  -0.3764  -0.1905   0.7129   1.8842
     1.9047   1.9047   2.5563   2.6944   2.6945   3.1796   3.4431   3.5828
     3.5828

[...]

          k =-0.0743 0.0429 0.0000 ( 25386 PWs)   bands (ev):

[...]

     the Fermi energy is     0.9192 ev

!    total energy              =   -1949.78410711 Ry
     Harris-Foulkes estimate   =   -1949.78410178 Ry
     estimated scf accuracy    <       0.00000341 Ry

     The total energy is the sum of the following terms:

     one-electron contribution =  -10680.62421409 Ry
     hartree contribution      =    5406.63130753 Ry
     xc contribution           =    -540.19181263 Ry
     ewald contribution        =    3864.44642584 Ry
     electric field correction =       0.00002208 Ry
     smearing contrib. (-TS)   =      -0.04583584 Ry

     convergence has been achieved in  15 iterations

 BEEF-vdW xc energy contributions
           1 :   -474.511823766004
           2 :    434.234736204956
           3 :   -365.944346306367
           4 :    288.648782597345
           5 :   -220.354314413295
           6 :    171.757488183959
           7 :   -143.878283501644
           8 :    130.124436243050
           9 :   -121.248756276419
          10 :    110.421046109185
          11 :   -95.9289690673813
          12 :    80.5583930902267
          13 :   -68.6194415472618
          14 :    62.7094580679689
          15 :   -62.1190181918187
          16 :    63.5418749262127
          17 :   -63.3255412489099
          18 :    59.6800975039839
          19 :   -53.4957986851228
          20 :    47.4240816002703
          21 :   -43.9826031168162
          22 :    43.9536713029476
          23 :   -46.0393798362670
          24 :    47.8563801270266
          25 :   -47.5159736015343
          26 :    44.7406133172470
          27 :   -40.8640278973322
          28 :    37.8225675145458
          29 :   -36.8712432090698
          30 :    37.8555713649763
          31 :   -41.6745104210771
          32 :   -30.3169016008308

     Forces acting on atoms (Ry/au):

     negative rho (up, down):  7.192E-04 0.000E+00
     atom    1 type  1   force =    -0.00002048   -0.00000756   -0.00357026
     atom    2 type  1   force =     0.00000682   -0.00502223    0.00008643
     atom    3 type  1   force =    -0.00434303    0.00250364    0.00007521
     atom    4 type  1   force =     0.00435932    0.00250704    0.00008269
     atom    5 type  1   force =     0.00150893   -0.00086982    0.00207760
     atom    6 type  1   force =    -0.00151230   -0.00090089    0.00206834
     atom    7 type  1   force =     0.00000519    0.00002217   -0.02617645
     atom    8 type  1   force =     0.00000438    0.00175852    0.00206994
     atom    9 type  1   force =     0.01404164    0.00811082    0.02690779
     atom   10 type  1   force =    -0.01403921    0.00809843    0.02689925
     atom   11 type  1   force =    -0.00000241   -0.01620951    0.02691915
     atom   12 type  1   force =    -0.00000277    0.00000794   -0.00401257
     atom   13 type  2   force =    -0.00000300    0.00000092   -0.01917942
     atom   14 type  3   force =    -0.00000307    0.00000053   -0.03424770

     Total force =     0.067212     Total SCF correction =     0.002137

     entering subroutine stress ...

     negative rho (up, down):  7.192E-04 0.000E+00
          total   stress  (Ry/bohr**3)                   (kbar)     P=    1.62
   0.00002100   0.00000000   0.00000000          3.09      0.00      0.00
   0.00000000   0.00002100  -0.00000000          0.00      3.09     -0.00
   0.00000000  -0.00000000  -0.00000895          0.00     -0.00     -1.32

     BFGS Geometry Optimization

     number of scf cycles    =   1
     number of bfgs steps    =   0

     energy   new            =   -1949.7841071058 Ry

     new trust radius        =       0.0342477012 bohr
     new conv_thr            =       0.0000099958 Ry

ATOMIC_POSITIONS (crystal)
Sn1      0.166666667   0.166666667   0.392271209    0   0   0
Sn1      0.666666667   0.166666667   0.392271209    0   0   0
Sn1      0.166666667   0.666666667   0.392271209    0   0   0
Sn1      0.666666667   0.666666667   0.392271209    0   0   0
Sn1      0.833333333   0.333333333   0.500000000    0   0   0
Sn1      0.333333333   0.333333333   0.500000000    0   0   0
Sn1      0.833333333   0.833333333   0.500000000    0   0   0
Sn1      0.333333333   0.833333333   0.500000000    0   0   0
Sn1      0.000736212   0.000736740   0.608287346
Sn1      0.498527802   0.000735614   0.608287169
Sn1      0.000735999   0.498527622   0.608287582
Sn1      0.499999422   0.500000721   0.607645498
N1       0.166666389   0.166666750   0.660875683
H1       0.166666401   0.166666715   0.701751371

     Writing output data file calc.save
     Check: negative starting charge=   -0.001395
     NEW-OLD atomic charge density approx. for the potential
     Check: negative starting charge=   -0.001392

[...]

     energy   old            =   -1949.7841071058 Ry
     energy   new            =   -1949.7883567358 Ry

     CASE: energy  _new < energy  _old

     WARNING: bfgs curvature condition failed, Theta= 0.920
     new trust radius        =       0.0513715519 bohr
     new conv_thr            =       0.0000001000 Ry

[...]

     WARNING: bfgs curvature condition failed, Theta= 0.901
     new trust radius        =       0.0307659342 bohr
     new conv_thr            =       0.0000001000 Ry

[...]

     number of scf cycles    =  10
     number of bfgs steps    =   9

     energy   old            =   -1949.8038404989 Ry
     energy   new            =   -1949.8041947769 Ry

     CASE: energy  _new < energy  _old

     new trust radius        =       0.0107288391 bohr
     new conv_thr            =       0.0000001000 Ry

ATOMIC_POSITIONS (crystal)
Sn1      0.166666667   0.166666667   0.392271209    0   0   0
Sn1      0.666666667   0.166666667   0.392271209    0   0   0
Sn1      0.166666667   0.666666667   0.392271209    0   0   0
Sn1      0.666666667   0.666666667   0.392271209    0   0   0
Sn1      0.833333333   0.333333333   0.500000000    0   0   0
Sn1      0.333333333   0.333333333   0.500000000    0   0   0
Sn1      0.833333333   0.833333333   0.500000000    0   0   0
Sn1      0.333333333   0.833333333   0.500000000    0   0   0
Sn1     -0.003186939  -0.003185287   0.615751735
Sn1      0.506371068  -0.003185077   0.615751584
Sn1     -0.003186663   0.506374256   0.615752405
Sn1      0.499998559   0.500001474   0.606198666
N1       0.166667086   0.166666896   0.657179089
H1       0.166666914   0.166665863   0.697397399

     Writing output data file calc.save
     Check: negative starting charge=   -0.001412
     NEW-OLD atomic charge density approx. for the potential
     Check: negative starting charge=   -0.001413

[...]

     Self-consistent Calculation

[...]

     total energy              =   -1949.80420998 Ry
     Harris-Foulkes estimate   =   -1949.80421001 Ry
     estimated scf accuracy    <       0.00000012 Ry

     iteration #  8     ecut=    36.75 Ry     beta=0.30
     Davidson diagonalization with overlap
     ethr =  7.13E-11,  avg # of iterations =  3.0

[...]

     negative rho (up, down):  6.977E-04 0.000E+00

     Adding external electric field

     Computed dipole along edir(3) :
        Dipole                0.2347 Ry au,          0.5966 Debye
        Dipole field          0.0004 Ry au

        Potential amp.       -0.0411 Ry
        Total length         46.9696 bohr

     End of self-consistent calculation

[...]

          k = 0.0496-0.0572 0.0000 ( 25368 PWs)   bands (ev):

[...]

          k =-0.0743-0.0429 0.0000 ( 25386 PWs)   bands (ev):

   -21.1285 -21.0806 -21.0598 -21.0528 -21.0446 -21.0401 -21.0297 -21.0269
   -21.0261 -21.0210 -21.0170 -21.0149 -21.0083 -21.0071 -20.9943 -20.9901
   -20.9859 -20.9839 -20.9809 -20.9808 -20.9781 -20.9724 -20.9709 -20.9634
   -20.9600 -20.9567 -20.9528 -20.9511 -20.9497 -20.9423 -20.9422 -20.9400
   -20.9371 -20.9354 -20.9280 -20.9195 -20.9163 -20.9063 -20.9059 -20.9046
   -20.8976 -20.8959 -20.8901 -20.8888 -20.8841 -20.8806 -20.8782 -20.8748
   -20.8717 -20.8699 -20.8618 -20.8559 -20.8535 -20.8509 -20.8457 -20.8455
   -20.8405 -20.8347 -20.8228 -20.8126 -14.9359  -8.5375  -8.4541  -7.5372
    -7.4885  -6.4676  -6.3763  -6.0804  -5.9580  -5.7089  -5.4265  -4.3036
    -4.3012  -3.5576  -2.5692  -1.8763  -1.2534  -1.0920  -1.0570  -0.8930
    -0.8328  -0.5006   0.0981   0.2659   0.4259   0.8373   1.0432   1.1874
     1.4508   1.5956   1.7671   1.8203   2.1583   2.2208   2.2355   2.2838
     3.0793

     the Fermi energy is     1.0161 ev

!    total energy              =   -1949.80420999 Ry
     Harris-Foulkes estimate   =   -1949.80421009 Ry
     estimated scf accuracy    <          4.2E-09 Ry

     The total energy is the sum of the following terms:

     one-electron contribution =  -10510.51046915 Ry
     hartree contribution      =    5321.97735718 Ry
     xc contribution           =    -540.22506813 Ry
     ewald contribution        =    3779.00054820 Ry
     electric field correction =       0.00010270 Ry
     smearing contrib. (-TS)   =      -0.04668079 Ry

     convergence has been achieved in   8 iterations

 BEEF-vdW xc energy contributions
           1 :   -474.542983321071
           2 :    434.240090569328
           3 :   -365.893054061299
           4 :    288.527043215954
           5 :   -220.183980013226
           6 :    171.585521368710
           7 :   -143.749669022008
           8 :    130.059704214386
           9 :   -121.238790951541
          10 :    110.438555162566
          11 :   -95.9462157089796
          12 :    80.5605724266994
          13 :   -68.6084181104299
          14 :    62.6970094979968
          15 :   -62.1157305668813
          16 :    63.5501712475333
          17 :   -63.3396125777908
          18 :    59.6903559583734
          19 :   -53.4949711688490
          20 :    47.4115842826260
          21 :   -43.9642841085623
          22 :    43.9374574573533
          23 :   -46.0302143918135
          24 :    47.8539078180388
          25 :   -47.5159277642842
          26 :    44.7385095507632
          27 :   -40.8585099906833
          28 :    37.8163430388203
          29 :   -36.8692304119606
          30 :    37.8616251649195
          31 :   -41.6736978431427
          32 :   -30.3050354422368

     Forces acting on atoms (Ry/au):

     negative rho (up, down):  6.977E-04 0.000E+00
     atom    1 type  1   force =    -0.00000031    0.00000007   -0.00576634
     atom    2 type  1   force =     0.00000045   -0.00442311   -0.00299175
     atom    3 type  1   force =    -0.00383083    0.00221160   -0.00299159
     atom    4 type  1   force =     0.00383055    0.00221125   -0.00299170
     atom    5 type  1   force =     0.00339572   -0.00196068    0.00780183
     atom    6 type  1   force =    -0.00339603   -0.00196031    0.00780227
     atom    7 type  1   force =     0.00000014   -0.00000005   -0.01441387
     atom    8 type  1   force =    -0.00000002    0.00392141    0.00780205
     atom    9 type  1   force =     0.00054053    0.00031242    0.00076141
     atom   10 type  1   force =    -0.00053943    0.00031141    0.00076034
     atom   11 type  1   force =    -0.00000020   -0.00062441    0.00076051
     atom   12 type  1   force =     0.00000051   -0.00000022   -0.00023447
     atom   13 type  2   force =    -0.00000146    0.00000078    0.00188944
     atom   14 type  3   force =     0.00000038   -0.00000016    0.00181186

     Total force =     0.003132     Total SCF correction =     0.000212

     entering subroutine stress ...

     negative rho (up, down):  6.977E-04 0.000E+00
          total   stress  (Ry/bohr**3)                   (kbar)     P=    1.70
   0.00001731  -0.00000000  -0.00000000          2.55     -0.00     -0.00
  -0.00000000   0.00001731   0.00000000         -0.00      2.55      0.00
  -0.00000000   0.00000000   0.00000006         -0.00      0.00      0.01

     bfgs converged in  11 scf cycles and  10 bfgs steps
     (criteria: energy <  1.0E+00, force <  1.9E-03)

     End of BFGS Geometry Optimization

     Final energy   =   -1949.8042099903 Ry
Begin final coordinates

ATOMIC_POSITIONS (crystal)
Sn1      0.166666667   0.166666667   0.392271209    0   0   0
Sn1      0.666666667   0.166666667   0.392271209    0   0   0
Sn1      0.166666667   0.666666667   0.392271209    0   0   0
Sn1      0.666666667   0.666666667   0.392271209    0   0   0
Sn1      0.833333333   0.333333333   0.500000000    0   0   0
Sn1      0.333333333   0.333333333   0.500000000    0   0   0
Sn1      0.833333333   0.833333333   0.500000000    0   0   0
Sn1      0.333333333   0.833333333   0.500000000    0   0   0
Sn1     -0.003186939  -0.003185287   0.615751735
Sn1      0.506371068  -0.003185077   0.615751584
Sn1     -0.003186663   0.506374256   0.615752405
Sn1      0.499998559   0.500001474   0.606198666
N1       0.166667086   0.166666896   0.657179089
H1       0.166666914   0.166665863   0.697397399
End final coordinates

     Writing output data file calc.save

     General routines

     Parallel routines

   This run was terminated on:   5:58:38  23Apr2018

   JOB DONE.

TID   HOST_NAME   COMMAND_LINE            STATUS            TERMINATION_TIME
00000 suncat0056 pw.x -npool 4 -i  Done                     04/23/2018 05:58:38
00001 suncat0056 pw.x -npool 4 -i  Done                     04/23/2018 05:58:38
00002 suncat0056 pw.x -npool 4 -i  Done                     04/23/2018 05:58:38
00003 suncat0056 pw.x -npool 4 -i  Done                     04/23/2018 05:58:38
00004 suncat0056 pw.x -npool 4 -i  Done                     04/23/2018 05:58:38
00005 suncat0056 pw.x -npool 4 -i  Done                     04/23/2018 05:58:38
00006 suncat0056 pw.x -npool 4 -i  Done                     04/23/2018 05:58:38
00007 suncat0056 pw.x -npool 4 -i  Done                     04/23/2018 05:58:38
00008 suncat0019 pw.x -npool 4 -i  Done                     04/23/2018 05:58:38
00009 suncat0019 pw.x -npool 4 -i  Done                     04/23/2018 05:58:38
00010 suncat0019 pw.x -npool 4 -i  Done                     04/23/2018 05:58:38
00011 suncat0019 pw.x -npool 4 -i  Done                     04/23/2018 05:58:38
00012 suncat0019 pw.x -npool 4 -i  Done                     04/23/2018 05:58:38
00013 suncat0019 pw.x -npool 4 -i  Done                     04/23/2018 05:58:38
00014 suncat0019 pw.x -npool 4 -i  Done                     04/23/2018 05:58:38
00015 suncat0019 pw.x -npool 4 -i  Done                     04/23/2018 05:58:38
00016 suncat0214 pw.x -npool 4 -i  Done                     04/23/2018 05:58:38
00017 suncat0214 pw.x -npool 4 -i  Done                     04/23/2018 05:58:38
00018 suncat0214 pw.x -npool 4 -i  Done                     04/23/2018 05:58:38
00019 suncat0214 pw.x -npool 4 -i  Done                     04/23/2018 05:58:38
00020 suncat0214 pw.x -npool 4 -i  Done                     04/23/2018 05:58:38
00021 suncat0214 pw.x -npool 4 -i  Done                     04/23/2018 05:58:38
00022 suncat0214 pw.x -npool 4 -i  Done                     04/23/2018 05:58:38
00023 suncat0214 pw.x -npool 4 -i  Done                     04/23/2018 05:58:38
00024 suncat0209 pw.x -npool 4 -i  Done                     04/23/2018 05:58:38
00025 suncat0209 pw.x -npool 4 -i  Done                     04/23/2018 05:58:38
00026 suncat0209 pw.x -npool 4 -i  Done                     04/23/2018 05:58:38
00027 suncat0209 pw.x -npool 4 -i  Done                     04/23/2018 05:58:38
00028 suncat0209 pw.x -npool 4 -i  Done                     04/23/2018 05:58:38
00029 suncat0209 pw.x -npool 4 -i  Done                     04/23/2018 05:58:38
00030 suncat0209 pw.x -npool 4 -i  Done                     04/23/2018 05:58:38
00031 suncat0209 pw.x -npool 4 -i  Done                     04/23/2018 05:58:38