     Program PWSCF v.5.1rc2 (svn rev. 11289) starts on 16Apr2018 at 22:39:28

     Current dimensions of program PWSCF are:
     Max number of different atomic species (ntypx) = 10
     Max number of k-points (npk) =  40000
     Max angular momentum in pseudopotentials (lmaxx) =  3
     Presently stress not available with electric field

     IMPORTANT: XC functional enforced from input :
     Exchange-correlation      = BEEF-VDW ( 1  4 27 13 2)
     Any further DFT definition will be discarded
     Please, verify this is what you really want

     Subspace diagonalization in iterative solution of the eigenvalue problem:
     a serial algorithm will be used

     bravais-lattice index     =            0
     lattice parameter (alat)  =       1.8897  a.u.
     unit-cell volume          =    3724.3394 (a.u.)^3
     number of atoms/cell      =           14
     number of atomic types    =            3
     number of electrons       =       174.00
     number of Kohn-Sham states=           97
     kinetic-energy cutoff     =      36.7493  Ry
     charge density cutoff     =     367.4932  Ry
     convergence threshold     =      1.0E-05
     mixing beta               =       0.3000
     number of iterations used =           10  plain     mixing
     Exchange-correlation      = BEEF-VDW ( 1  4 27 13 2)
     nstep                     =           50

     celldm(1)=   1.889726  celldm(2)=   0.000000  celldm(3)=   0.000000
     celldm(4)=   0.000000  celldm(5)=   0.000000  celldm(6)=   0.000000

     crystal axes: (cart. coord. in units of alat)
               a(1) = (   5.132588   0.000000   0.000000 )
               a(2) = (   2.566294   4.444952   0.000000 )
               a(3) = (   0.000000   0.000000  24.190741 )

     reciprocal axes: (cart. coord. in units 2 pi/alat)
               b(1) = (  0.194833 -0.112487  0.000000 )
               b(2) = (  0.000000  0.224974  0.000000 )
               b(3) = (  0.000000  0.000000  0.041338 )

     PseudoPot. # 1 for Cr read from file:
     /u/if/mamunm/psp/gbrv1.5pbe/Cr.UPF
     MD5 check sum: 0d52af634a40206e4dee301ad30da4bf
     Pseudo is Ultrasoft + core correction, Zval = 14.0
     Generated by new atomic code, or converted to UPF format
     Using radial grid of  857 points,  6 beta functions with:
                l(1) =   0
                l(2) =   0
                l(3) =   1
                l(4) =   1
                l(5) =   2
                l(6) =   2
     Q(r) pseudized with  8 coefficients,  rinner =    0.950   0.950   0.950
                                                       0.950   0.950

     PseudoPot. # 2 for N  read from file:
     /u/if/mamunm/psp/gbrv1.5pbe/N.UPF
     MD5 check sum: 95339753478d7afb44899504a8723017
     Pseudo is Ultrasoft + core correction, Zval =  5.0
     Generated by new atomic code, or converted to UPF format
     Using radial grid of  729 points,  4 beta functions with:
                l(1) =   0
                l(2) =   0
                l(3) =   1
                l(4) =   1
     Q(r) pseudized with  8 coefficients,  rinner =    0.900   0.900   0.900

     PseudoPot. # 3 for H  read from file:
     /u/if/mamunm/psp/gbrv1.5pbe/H.UPF
     MD5 check sum: 761ae9a214b05c3daf00ab9f6b793d6f
     Pseudo is Ultrasoft, Zval =  1.0
     Generated by new atomic code, or converted to UPF format
     Using radial grid of  615 points,  2 beta functions with:
                l(1) =   0
                l(2) =   0
     Q(r) pseudized with  8 coefficients,  rinner =    0.700

     vdW kernel table read from file vdW_kernel_table
     MD5 check sum: 095c7af220d748ca6e76c0b4c6cfb241

     atomic species   valence    mass     pseudopotential
        Cr1           14.00    51.99610     Cr( 1.00)
        N1             5.00    14.00700     N ( 1.00)
        H1             1.00     1.00800     H ( 1.00)

     No symmetry found

   Cartesian axes

     site n.     atom                  positions (alat units)
         1           Cr1 tau(   1) = (   1.2831471   0.7408253  10.0000000  )
         2           Cr1 tau(   2) = (   3.8494412   0.7408253  10.0000000  )
         3           Cr1 tau(   3) = (   2.5662941   2.9633012  10.0000000  )
         4           Cr1 tau(   4) = (   5.1325882   2.9633012  10.0000000  )
         5           Cr1 tau(   5) = (   5.1325882   1.4816506  12.0953704  )
         6           Cr1 tau(   6) = (   2.5662941   1.4816506  12.0953704  )
         7           Cr1 tau(   7) = (   6.4157353   3.7041265  12.0953704  )
         8           Cr1 tau(   8) = (   3.8494412   3.7041265  12.0953704  )
         9           Cr1 tau(   9) = (   0.0000000   0.0000000  14.1907408  )
        10           Cr1 tau(  10) = (   2.5662941   0.0000000  14.1907408  )
        11           Cr1 tau(  11) = (   1.2831471   2.2224759  14.1907408  )
        12           Cr1 tau(  12) = (   3.8494412   2.2224759  14.1907408  )
        13           N1  tau(  13) = (   0.0000000   0.0000000  15.9757408  )
        14           H1  tau(  14) = (   0.0000000   0.0000000  17.0257408  )

     number of k points=    20  Fermi-Dirac smearing, width (Ry)=  0.0110
                       cart. coord. in units 2pi/alat
        k(    1) = (   0.0000000   0.0000000   0.0000000), wk =   0.0555556
        k(    2) = (   0.0000000   0.0374957   0.0000000), wk =   0.1111111
        k(    3) = (   0.0000000   0.0749914   0.0000000), wk =   0.1111111
        k(    4) = (   0.0000000  -0.1124872   0.0000000), wk =   0.0555556
        k(    5) = (   0.0324722  -0.0187479   0.0000000), wk =   0.1111111
        k(    6) = (   0.0324722   0.0187479   0.0000000), wk =   0.1111111
        k(    7) = (   0.0324722   0.0562436   0.0000000), wk =   0.1111111
        k(    8) = (   0.0324722  -0.1312350   0.0000000), wk =   0.1111111
        k(    9) = (   0.0324722  -0.0937393   0.0000000), wk =   0.1111111
        k(   10) = (   0.0324722  -0.0562436   0.0000000), wk =   0.1111111
        k(   11) = (   0.0649445  -0.0374957   0.0000000), wk =   0.1111111
        k(   12) = (   0.0649445   0.0000000   0.0000000), wk =   0.1111111
        k(   13) = (   0.0649445   0.0374957   0.0000000), wk =   0.1111111
        k(   14) = (   0.0649445  -0.1499829   0.0000000), wk =   0.1111111
        k(   15) = (   0.0649445  -0.1124872   0.0000000), wk =   0.1111111
        k(   16) = (   0.0649445  -0.0749914   0.0000000), wk =   0.1111111
        k(   17) = (  -0.0974167   0.0562436   0.0000000), wk =   0.0555556
        k(   18) = (  -0.0974167   0.0937393   0.0000000), wk =   0.1111111
        k(   19) = (  -0.0974167   0.1312350   0.0000000), wk =   0.1111111
        k(   20) = (  -0.0974167  -0.0562436   0.0000000), wk =   0.0555556

     Largest allocated arrays     est. size (Mb)     dimensions
     Largest temporary arrays     est. size (Mb)     dimensions

     Check: negative/imaginary core charge=   -0.000004    0.000000

     Initial potential from superposition of free atoms
     Check: negative starting charge=   -0.014785

     starting charge  161.99980, renormalised to  174.00000

     negative rho (up, down):  1.588E-02 0.000E+00

     *
     * You are using vdW-DF for exchange-correlation in this calculation.
     * Please cite the following three references that made this development
     * possible:
     *
     *   M. Dion, H. Rydberg, E. Schroder, D. C. Langreth, and
     *   B. I. Lundqvist, Phys. Rev. Lett. 92, 246401 (2004).
     *
     *   T. Thonhauser, V. R. Cooper, S. Li, A. Puzder, P. Hyldgaard, and
     *   D. C. Langreth, Phys. Rev. B 76, 125112 (2007).
     *
     *   G. Roman-Perez and J. M. Soler, Phys. Rev. Lett. 103, 096102 (2009).
     *
     *
     * If you are using vdW-DF2, please also cite:
     *
     *   K. Lee, E. D. Murray, L. Kong, B. I. Lundqvist, and
     *   D. C. Langreth, Phys. Rev. B 82, 081101(R) (2010).
     *
     *
     * If you are calculating the stress with vdW-DF, please also cite:
     *
     *   R. Sabatini, E. Kucukbenli, B. Kolb, T. Thonhauser, and
     *   S. de Gironcoli, J. Phys.: Condens. Matter 24, 424209 (2012).
     *

     Carrying out vdW-DF run using the following parameters:

     Nqs =      20    Nr_points =    1024   r_max =   100.000
     q_mesh =
               0.00001000     0.04494208     0.09755937     0.15916263
               0.23128650     0.31572767     0.41458969     0.53033537
               0.66584808     0.82450364     1.01025438     1.22772762
               1.48234092     1.78043706     2.12944203     2.53805004
               3.01644009     3.57652955     4.23227104     5.00000000

     Gradients computed in reciprocal space

     Adding external electric field

     Computed dipole along edir(3) :
        Dipole               -3.4059 Ry au,         -8.6570 Debye
        Dipole field         -0.0115 Ry au

        Potential amp.        1.0244 Ry
        Total length         44.5710 bohr

     Starting wfc are  125 randomized atomic wfcs

     Self-consistent Calculation

     iteration #  1     ecut=    36.75 Ry     beta=0.30
     Davidson diagonalization with overlap
     ethr =  1.00E-02,  avg # of iterations =  8.1

[...]

     total energy              =   -1883.91167524 Ry
     Harris-Foulkes estimate   =   -2137.03598258 Ry
     estimated scf accuracy    <     527.38408905 Ry

[...]

     End of self-consistent calculation

          k = 0.0000 0.0000 0.0000 ( 14081 PWs)   bands (ev):

   -70.1459 -69.9300 -69.8420 -69.8141 -69.7899 -69.7896 -69.7817 -69.7631
   -69.7629 -69.6915 -69.6892 -69.6882 -41.7701 -41.5784 -41.5783 -41.5178
   -41.5176 -41.5107 -41.4627 -41.3742 -41.3614 -41.3609 -41.3404 -41.1907
   -41.1352 -41.1348 -41.0911 -41.0874 -41.0870 -41.0555 -41.0554 -41.0297
   -40.9831 -40.9830 -40.9812 -40.9442 -40.9415 -40.9413 -40.9075 -40.8586
   -40.8585 -40.8355 -40.8328 -40.8325 -40.8074 -40.8071 -40.7013 -40.7013
   -13.3476  -5.2609  -4.5746  -3.0966  -2.1718  -2.0055  -2.0054  -1.8619
    -1.6007  -1.6007  -1.5064  -1.3649  -1.3649  -1.1305  -1.0886  -1.0884
    -1.0150  -0.9169  -0.9168  -0.1522   0.2751   0.2753   0.8223   0.8752
     1.0280   1.0280   1.0827   1.3477   1.3477   1.4651   1.5091   1.5091
     1.5961   1.5963   1.6220   1.6600   1.6603   1.6957   1.6957   2.0064
     2.3466   2.5760   2.5761   2.6695   2.6989   2.8384   2.8384   2.9823
     2.9824

[...]

          k =-0.0974 0.0562 0.0000 ( 14010 PWs)   bands (ev):

[...]

     the Fermi energy is     1.7839 ev

!    total energy              =   -2136.42474880 Ry
     Harris-Foulkes estimate   =   -2136.42472588 Ry
     estimated scf accuracy    <       0.00000885 Ry

     The total energy is the sum of the following terms:

     one-electron contribution =  -19917.36758602 Ry
     hartree contribution      =    9954.96372587 Ry
     xc contribution           =    -285.32799550 Ry
     ewald contribution        =    8111.43975094 Ry
     electric field correction =       0.00037345 Ry
     smearing contrib. (-TS)   =      -0.13301755 Ry

     convergence has been achieved in  43 iterations

 BEEF-vdW xc energy contributions
           1 :   -246.904587624883
           2 :    222.149181334441
           3 :   -180.879490765361
           4 :    135.545726666387
           5 :   -97.3762369055007
           6 :    72.3333120260598
           7 :   -60.0617147984580
           8 :    55.7850321515137
           9 :   -53.7057581192416
          10 :    49.9740957233180
          11 :   -43.8931136697382
          12 :    37.1798313395520
          13 :   -32.1389513055041
          14 :    29.9755774045288
          15 :   -30.1474548010320
          16 :    30.9246442169788
          17 :   -30.6166528968367
          18 :    28.6080268940125
          19 :   -25.5852333737214
          20 :    22.9116609428429
          21 :   -21.6457261544697
          22 :    21.8686897049154
          23 :   -22.7235840744951
          24 :    23.0620099538118
          25 :   -22.2151291040237
          26 :    20.3764221607168
          27 :   -18.3921889053523
          28 :    17.1527532314661
          29 :   -17.0126018772055
          30 :    17.6048072302553
          31 :   -24.5315271991749
          32 :   -17.6097094085827

     Forces acting on atoms (Ry/au):

     negative rho (up, down):  1.466E-02 0.000E+00
     atom    1 type  1   force =     0.00024642    0.00011597    0.00062712
     atom    2 type  1   force =    -0.00024312    0.00013954    0.00061851
     atom    3 type  1   force =     0.00002061   -0.00026878    0.00066576
     atom    4 type  1   force =    -0.00002034    0.00000972   -0.00055899
     atom    5 type  1   force =     0.00002866    0.00326806    0.00066697
     atom    6 type  1   force =    -0.00002408    0.00002035    0.01255406
     atom    7 type  1   force =    -0.00280778   -0.00165858    0.00065309
     atom    8 type  1   force =     0.00280537   -0.00162525    0.00062611
     atom    9 type  1   force =     0.00002864   -0.00001594    0.14057129
     atom   10 type  1   force =    -0.00002271    0.00390615   -0.01793359
     atom   11 type  1   force =     0.00339226   -0.00195542   -0.01780177
     atom   12 type  1   force =    -0.00340197   -0.00194069   -0.01789325
     atom   13 type  2   force =    -0.00000024    0.00000246   -0.05644928
     atom   14 type  3   force =    -0.00000173    0.00000241   -0.04634603

     Total force =     0.161553     Total SCF correction =     0.005280

     entering subroutine stress ...

     negative rho (up, down):  1.466E-02 0.000E+00
          total   stress  (Ry/bohr**3)                   (kbar)     P=  -27.90
  -0.00021541  -0.00000006  -0.00000001        -31.69     -0.01     -0.00
  -0.00000006  -0.00021541  -0.00000000         -0.01    -31.69     -0.00
  -0.00000001  -0.00000000  -0.00013818         -0.00     -0.00    -20.33

     BFGS Geometry Optimization

     number of scf cycles    =   1
     number of bfgs steps    =   0

     energy   new            =   -2136.4247488036 Ry

     new trust radius        =       0.1405712931 bohr
     new conv_thr            =       0.0000099958 Ry

ATOMIC_POSITIONS (crystal)
Cr1      0.166666667   0.166666667   0.413381306    0   0   0
Cr1      0.666666667   0.166666667   0.413381306    0   0   0
Cr1      0.166666667   0.666666667   0.413381306    0   0   0
Cr1      0.666666667   0.666666667   0.413381306    0   0   0
Cr1      0.833333333   0.333333333   0.500000000    0   0   0
Cr1      0.333333333   0.333333333   0.500000000    0   0   0
Cr1      0.833333333   0.833333333   0.500000000    0   0   0
Cr1      0.333333333   0.833333333   0.500000000    0   0   0
Cr1      0.000003902  -0.000001898   0.589693719
Cr1      0.499765142   0.000465033   0.586226394
Cr1      0.000466145   0.499767205   0.586229277
Cr1      0.499764773   0.499768958   0.586227276
N1      -0.000000171   0.000000292   0.659172418
H1      -0.000000321   0.000000287   0.702798466

     Writing output data file calc.save
     Check: negative starting charge=   -0.014785
     NEW-OLD atomic charge density approx. for the potential

     Check: negative/imaginary core charge=   -0.000004    0.000000
     Check: negative starting charge=   -0.014587

[...]

     energy   old            =   -2136.4247488036 Ry
     energy   new            =   -2136.4436104951 Ry

     CASE: energy  _new < energy  _old

[...]

     Total force =     0.009500     Total SCF correction =     0.001305
     SCF correction compared to forces is large: reduce conv_thr to get better values

[...]

     Total force =     0.006268     Total SCF correction =     0.000180

[...]

     number of scf cycles    =  16
     number of bfgs steps    =  15

     energy   old            =   -2136.4729760881 Ry
     energy   new            =   -2136.4730493733 Ry

     CASE: energy  _new < energy  _old

     new trust radius        =       0.0181447729 bohr
     new conv_thr            =       0.0000001000 Ry

ATOMIC_POSITIONS (crystal)
Cr1      0.166666667   0.166666667   0.413381306    0   0   0
Cr1      0.666666667   0.166666667   0.413381306    0   0   0
Cr1      0.166666667   0.666666667   0.413381306    0   0   0
Cr1      0.666666667   0.666666667   0.413381306    0   0   0
Cr1      0.833333333   0.333333333   0.500000000    0   0   0
Cr1      0.333333333   0.333333333   0.500000000    0   0   0
Cr1      0.833333333   0.833333333   0.500000000    0   0   0
Cr1      0.333333333   0.833333333   0.500000000    0   0   0
Cr1      0.000003043  -0.000003261   0.600154942
Cr1      0.502491139  -0.004980136   0.578076069
Cr1     -0.004976870   0.502491127   0.578077845
Cr1      0.502495797   0.502490981   0.578076666
N1       0.000002763  -0.000003058   0.667958937
H1      -0.000003556   0.000002797   0.710072494

     Writing output data file calc.save
     Check: negative starting charge=   -0.013708
     NEW-OLD atomic charge density approx. for the potential

     Check: negative/imaginary core charge=   -0.000004    0.000000
     Check: negative starting charge=   -0.014042

[...]

     Self-consistent Calculation

[...]

     total energy              =   -2136.47310432 Ry
     Harris-Foulkes estimate   =   -2136.47310432 Ry
     estimated scf accuracy    <       0.00000011 Ry

     iteration # 22     ecut=    36.75 Ry     beta=0.30
     Davidson diagonalization with overlap
     ethr =  6.11E-11,  avg # of iterations =  1.3

[...]

     negative rho (up, down):  1.414E-02 0.000E+00

     Adding external electric field

     Computed dipole along edir(3) :
        Dipole                0.2549 Ry au,          0.6480 Debye
        Dipole field          0.0009 Ry au

        Potential amp.       -0.0767 Ry
        Total length         44.5710 bohr

     End of self-consistent calculation

[...]

          k = 0.0649-0.0750 0.0000 ( 13990 PWs)   bands (ev):

[...]

          k =-0.0974-0.0562 0.0000 ( 14010 PWs)   bands (ev):

   -70.1501 -70.0086 -69.9922 -69.9226 -69.9182 -69.8995 -69.8909 -69.8457
   -69.8417 -69.8321 -69.8152 -69.8011 -41.8741 -41.6080 -41.5965 -41.5817
   -41.5136 -41.4926 -41.4876 -41.4332 -41.4153 -41.3954 -41.3690 -41.3489
   -41.3135 -41.2825 -41.2198 -41.1970 -41.1933 -41.1867 -41.1787 -41.1665
   -41.1499 -41.1303 -41.1206 -41.1021 -41.0917 -41.0826 -41.0562 -41.0559
   -40.9893 -40.9825 -40.9358 -40.9256 -40.9252 -40.9140 -40.9047 -40.8634
   -13.3806  -5.0529  -3.2270  -3.1327  -1.9177  -1.7228  -1.5595  -1.5490
    -1.3728  -1.2601  -1.2294  -1.1030  -0.9784  -0.9730  -0.6211  -0.6003
    -0.4766  -0.3378  -0.2969  -0.2139   0.0083   0.0725   0.2078   0.2221
     0.2975   0.3207   0.5069   0.7196   0.7511   0.8373   0.8921   0.9335
     0.9376   1.0681   1.1073   1.1749   1.1823   1.3611   1.3736   1.5459
     1.5758   1.7298   2.0964   2.1879   2.2411   2.3760   2.4343   2.5134
     2.5739

     the Fermi energy is     1.6487 ev

!    total energy              =   -2136.47310426 Ry
     Harris-Foulkes estimate   =   -2136.47310483 Ry
     estimated scf accuracy    <       0.00000007 Ry

     The total energy is the sum of the following terms:

     one-electron contribution =  -20022.11802112 Ry
     hartree contribution      =   10006.80362349 Ry
     xc contribution           =    -285.57689598 Ry
     ewald contribution        =    8164.53692327 Ry
     electric field correction =       0.00021931 Ry
     smearing contrib. (-TS)   =      -0.11895323 Ry

     convergence has been achieved in  22 iterations

 BEEF-vdW xc energy contributions
           1 :   -247.156875733629
           2 :    222.451686564787
           3 :   -181.244003218503
           4 :    135.904827826124
           5 :   -97.6048924354727
           6 :    72.3358156127419
           7 :   -59.8476303328482
           8 :    55.4725094426428
           9 :   -53.4492323643931
          10 :    49.8683777771038
          11 :   -43.9189274297971
          12 :    37.2230511476006
          13 :   -32.0631585860095
          14 :    29.6976295486298
          15 :   -29.6802447768245
          16 :    30.3734013019738
          17 :   -30.1259577945836
          18 :    28.2821997766259
          19 :   -25.4275889115785
          20 :    22.8210386659407
          21 :   -21.4779148067151
          22 :    21.5293885163375
          23 :   -22.2318453740467
          24 :    22.5384686763795
          25 :   -21.8021145549223
          26 :    20.1437759709908
          27 :   -18.2901845941066
          28 :    17.0431739083943
          29 :   -16.7583778213713
          30 :    17.1587990820982
          31 :   -24.5466991894694
          32 :   -17.6311182145994

     Forces acting on atoms (Ry/au):

     negative rho (up, down):  1.414E-02 0.000E+00
     atom    1 type  1   force =     0.00073291    0.00042422    0.00747124
     atom    2 type  1   force =    -0.00073419    0.00042409    0.00747311
     atom    3 type  1   force =    -0.00000071   -0.00084706    0.00747440
     atom    4 type  1   force =     0.00000012   -0.00000066   -0.00441736
     atom    5 type  1   force =     0.00000043   -0.02349832    0.00228271
     atom    6 type  1   force =    -0.00000359    0.00000021   -0.02437315
     atom    7 type  1   force =     0.02034894    0.01174801    0.00228276
     atom    8 type  1   force =    -0.02034921    0.01174821    0.00228074
     atom    9 type  1   force =     0.00000009    0.00000286   -0.00063771
     atom   10 type  1   force =     0.00000327    0.00156830   -0.00013100
     atom   11 type  1   force =     0.00135791   -0.00078291   -0.00013218
     atom   12 type  1   force =    -0.00135500   -0.00078754   -0.00013159
     atom   13 type  2   force =    -0.00000114    0.00000135    0.00053058
     atom   14 type  3   force =     0.00000016   -0.00000076    0.00002747

     Total force =     0.002848     Total SCF correction =     0.000459
     SCF correction compared to forces is large: reduce conv_thr to get better values

     entering subroutine stress ...

     negative rho (up, down):  1.414E-02 0.000E+00
          total   stress  (Ry/bohr**3)                   (kbar)     P=  -14.01
  -0.00012789   0.00000000   0.00000001        -18.81      0.00      0.00
   0.00000000  -0.00012789   0.00000000          0.00    -18.81      0.00
   0.00000001   0.00000000  -0.00002988          0.00      0.00     -4.40

     bfgs converged in  17 scf cycles and  16 bfgs steps
     (criteria: energy <  1.0E+00, force <  1.9E-03)

     End of BFGS Geometry Optimization

     Final energy   =   -2136.4731042577 Ry
Begin final coordinates

ATOMIC_POSITIONS (crystal)
Cr1      0.166666667   0.166666667   0.413381306    0   0   0
Cr1      0.666666667   0.166666667   0.413381306    0   0   0
Cr1      0.166666667   0.666666667   0.413381306    0   0   0
Cr1      0.666666667   0.666666667   0.413381306    0   0   0
Cr1      0.833333333   0.333333333   0.500000000    0   0   0
Cr1      0.333333333   0.333333333   0.500000000    0   0   0
Cr1      0.833333333   0.833333333   0.500000000    0   0   0
Cr1      0.333333333   0.833333333   0.500000000    0   0   0
Cr1      0.000003043  -0.000003261   0.600154942
Cr1      0.502491139  -0.004980136   0.578076069
Cr1     -0.004976870   0.502491127   0.578077845
Cr1      0.502495797   0.502490981   0.578076666
N1       0.000002763  -0.000003058   0.667958937
H1      -0.000003556   0.000002797   0.710072494
End final coordinates

     Writing output data file calc.save

     General routines

     Parallel routines

   This run was terminated on:   1:10: 1  17Apr2018

   JOB DONE.
Job  /afs/slac/g/suncat/bin/suncat-tsmpirun -x LD_LIBRARY_PATH -wdir /scratch/qe155228_BkLsp pw.x -npool 4 -in pw.inp

TID   HOST_NAME   COMMAND_LINE            STATUS            TERMINATION_TIME
00000 suncat0144 pw.x -npool 4 -i  Done                     04/17/2018 01:10:01
00001 suncat0144 pw.x -npool 4 -i  Done                     04/17/2018 01:10:01
00002 suncat0144 pw.x -npool 4 -i  Done                     04/17/2018 01:10:01
00003 suncat0144 pw.x -npool 4 -i  Done                     04/17/2018 01:10:01
00004 suncat0144 pw.x -npool 4 -i  Done                     04/17/2018 01:10:01
00005 suncat0144 pw.x -npool 4 -i  Done                     04/17/2018 01:10:01
00006 suncat0144 pw.x -npool 4 -i  Done                     04/17/2018 01:10:01
00007 suncat0144 pw.x -npool 4 -i  Done                     04/17/2018 01:10:01
00008 suncat0138 pw.x -npool 4 -i  Done                     04/17/2018 01:10:01
00009 suncat0138 pw.x -npool 4 -i  Done                     04/17/2018 01:10:01
00010 suncat0138 pw.x -npool 4 -i  Done                     04/17/2018 01:10:01
00011 suncat0138 pw.x -npool 4 -i  Done                     04/17/2018 01:10:01
00012 suncat0138 pw.x -npool 4 -i  Done                     04/17/2018 01:10:01
00013 suncat0138 pw.x -npool 4 -i  Done                     04/17/2018 01:10:01
00014 suncat0138 pw.x -npool 4 -i  Done                     04/17/2018 01:10:01
00015 suncat0138 pw.x -npool 4 -i  Done                     04/17/2018 01:10:01
00016 suncat0221 pw.x -npool 4 -i  Done                     04/17/2018 01:10:01
00017 suncat0221 pw.x -npool 4 -i  Done                     04/17/2018 01:10:01
00018 suncat0221 pw.x -npool 4 -i  Done                     04/17/2018 01:10:01
00019 suncat0221 pw.x -npool 4 -i  Done                     04/17/2018 01:10:01
00020 suncat0221 pw.x -npool 4 -i  Done                     04/17/2018 01:10:01
00021 suncat0221 pw.x -npool 4 -i  Done                     04/17/2018 01:10:01
00022 suncat0221 pw.x -npool 4 -i  Done                     04/17/2018 01:10:01
00023 suncat0221 pw.x -npool 4 -i  Done                     04/17/2018 01:10:01
00024 suncat0215 pw.x -npool 4 -i  Done                     04/17/2018 01:10:01
00025 suncat0215 pw.x -npool 4 -i  Done                     04/17/2018 01:10:01
00026 suncat0215 pw.x -npool 4 -i  Done                     04/17/2018 01:10:01
00027 suncat0215 pw.x -npool 4 -i  Done                     04/17/2018 01:10:01
00028 suncat0215 pw.x -npool 4 -i  Done                     04/17/2018 01:10:01
00029 suncat0215 pw.x -npool 4 -i  Done                     04/17/2018 01:10:01
00030 suncat0215 pw.x -npool 4 -i  Done                     04/17/2018 01:10:01
00031 suncat0215 pw.x -npool 4 -i  Done                     04/17/2018 01:10:01