     Program PWSCF v.5.1rc2 (svn rev. 11289) starts on 16Jan2018 at 11:14:50

     Current dimensions of program PWSCF are:
     Max number of different atomic species (ntypx) = 10
     Max number of k-points (npk) =  40000
     Max angular momentum in pseudopotentials (lmaxx) =  3
     Presently stress not available with electric field

     IMPORTANT: XC functional enforced from input :
     Exchange-correlation      = BEEF-VDW ( 1  4 27 13 2)
     Any further DFT definition will be discarded
     Please, verify this is what you really want

     Subspace diagonalization in iterative solution of the eigenvalue problem:
     a serial algorithm will be used

     bravais-lattice index     =            0
     lattice parameter (alat)  =       1.8897  a.u.
     unit-cell volume          =    6501.5726 (a.u.)^3
     number of atoms/cell      =           13
     number of atomic types    =            2
     number of electrons       =       162.00
     number of Kohn-Sham states=           91
     kinetic-energy cutoff     =      36.7493  Ry
     charge density cutoff     =     367.4932  Ry
     convergence threshold     =      1.0E-05
     mixing beta               =       0.3000
     number of iterations used =           10  plain     mixing
     Exchange-correlation      = BEEF-VDW ( 1  4 27 13 2)
     nstep                     =           50

     celldm(1)=   1.889726  celldm(2)=   0.000000  celldm(3)=   0.000000
     celldm(4)=   0.000000  celldm(5)=   0.000000  celldm(6)=   0.000000

     crystal axes: (cart. coord. in units of alat)
               a(1) = (   6.617606   0.000000   0.000000 )
               a(2) = (   3.308803   5.731015   0.000000 )
               a(3) = (   0.000000   0.000000  25.403253 )

     reciprocal axes: (cart. coord. in units 2 pi/alat)
               b(1) = (  0.151112 -0.087245  0.000000 )
               b(2) = (  0.000000  0.174489  0.000000 )
               b(3) = (  0.000000  0.000000  0.039365 )

     PseudoPot. # 1 for In read from file:
     /afs/slac.stanford.edu/u/if/mamunm/psp/gbrv1.5pbe/In.UPF
     MD5 check sum: 90777abd96fbb83f2e67db2a40c566b9
     Pseudo is Ultrasoft + core correction, Zval = 13.0
     Generated by new atomic code, or converted to UPF format
     Using radial grid of  889 points,  6 beta functions with:
                l(1) =   0
                l(2) =   0
                l(3) =   1
                l(4) =   1
                l(5) =   2
                l(6) =   2
     Q(r) pseudized with  6 coefficients,  rinner =    1.400   1.400   1.400
                                                       1.400   1.400

     PseudoPot. # 2 for O  read from file:
     /afs/slac.stanford.edu/u/if/mamunm/psp/gbrv1.5pbe/O.UPF
     MD5 check sum: 734c27235a0248c51dbae37a1fbe46ec
     Pseudo is Ultrasoft + core correction, Zval =  6.0
     Generated by new atomic code, or converted to UPF format
     Using radial grid of  737 points,  5 beta functions with:
                l(1) =   0
                l(2) =   0
                l(3) =   1
                l(4) =   1
                l(5) =   2
     Q(r) pseudized with  8 coefficients,  rinner =    0.900   0.900   0.900
                                                       0.900   0.900

     vdW kernel table read from file vdW_kernel_table
     MD5 check sum: 095c7af220d748ca6e76c0b4c6cfb241

     atomic species   valence    mass     pseudopotential
        In1           13.00   114.81800     In( 1.00)
        O1             6.00    15.99900     O ( 1.00)

     No symmetry found

   Cartesian axes

     site n.     atom                  positions (alat units)
         1           In1 tau(   1) = (   1.6544016   0.9551692  10.0000000  )
         2           In1 tau(   2) = (   4.9632047   0.9551692  10.0000000  )
         3           In1 tau(   3) = (   3.3088031   3.8206768  10.0000000  )
         4           In1 tau(   4) = (   6.6176063   3.8206768  10.0000000  )
         5           In1 tau(   5) = (   6.6176063   1.9103384  12.7016265  )
         6           In1 tau(   6) = (   3.3088031   1.9103384  12.7016265  )
         7           In1 tau(   7) = (   8.2720078   4.7758460  12.7016265  )
         8           In1 tau(   8) = (   4.9632047   4.7758460  12.7016265  )
         9           In1 tau(   9) = (   0.0000000   0.0000000  15.4032529  )
        10           In1 tau(  10) = (   3.3088031   0.0000000  15.4032529  )
        11           In1 tau(  11) = (   1.6544016   2.8655076  15.4032529  )
        12           In1 tau(  12) = (   4.9632047   2.8655076  15.4032529  )
        13           O1  tau(  13) = (   0.0000000   0.0000000  17.4832529  )

     number of k points=    20  Fermi-Dirac smearing, width (Ry)=  0.0110
                       cart. coord. in units 2pi/alat
        k(    1) = (   0.0000000   0.0000000   0.0000000), wk =   0.0555556
        k(    2) = (   0.0000000   0.0290815   0.0000000), wk =   0.1111111
        k(    3) = (   0.0000000   0.0581631   0.0000000), wk =   0.1111111
        k(    4) = (   0.0000000  -0.0872446   0.0000000), wk =   0.0555556
        k(    5) = (   0.0251853  -0.0145408   0.0000000), wk =   0.1111111
        k(    6) = (   0.0251853   0.0145408   0.0000000), wk =   0.1111111
        k(    7) = (   0.0251853   0.0436223   0.0000000), wk =   0.1111111
        k(    8) = (   0.0251853  -0.1017853   0.0000000), wk =   0.1111111
        k(    9) = (   0.0251853  -0.0727038   0.0000000), wk =   0.1111111
        k(   10) = (   0.0251853  -0.0436223   0.0000000), wk =   0.1111111
        k(   11) = (   0.0503707  -0.0290815   0.0000000), wk =   0.1111111
        k(   12) = (   0.0503707   0.0000000   0.0000000), wk =   0.1111111
        k(   13) = (   0.0503707   0.0290815   0.0000000), wk =   0.1111111
        k(   14) = (   0.0503707  -0.1163261   0.0000000), wk =   0.1111111
        k(   15) = (   0.0503707  -0.0872446   0.0000000), wk =   0.1111111
        k(   16) = (   0.0503707  -0.0581631   0.0000000), wk =   0.1111111
        k(   17) = (  -0.0755560   0.0436223   0.0000000), wk =   0.0555556
        k(   18) = (  -0.0755560   0.0727038   0.0000000), wk =   0.1111111
        k(   19) = (  -0.0755560   0.1017853   0.0000000), wk =   0.1111111
        k(   20) = (  -0.0755560  -0.0436223   0.0000000), wk =   0.0555556

     Largest allocated arrays     est. size (Mb)     dimensions
     Largest temporary arrays     est. size (Mb)     dimensions

     Initial potential from superposition of free atoms
     Check: negative starting charge=   -0.000402

     starting charge  143.99999, renormalised to  162.00000

     negative rho (up, down):  4.524E-04 0.000E+00

     *
     * You are using vdW-DF for exchange-correlation in this calculation.
     * Please cite the following three references that made this development
     * possible:
     *
     *   M. Dion, H. Rydberg, E. Schroder, D. C. Langreth, and
     *   B. I. Lundqvist, Phys. Rev. Lett. 92, 246401 (2004).
     *
     *   T. Thonhauser, V. R. Cooper, S. Li, A. Puzder, P. Hyldgaard, and
     *   D. C. Langreth, Phys. Rev. B 76, 125112 (2007).
     *
     *   G. Roman-Perez and J. M. Soler, Phys. Rev. Lett. 103, 096102 (2009).
     *
     *
     * If you are using vdW-DF2, please also cite:
     *
     *   K. Lee, E. D. Murray, L. Kong, B. I. Lundqvist, and
     *   D. C. Langreth, Phys. Rev. B 82, 081101(R) (2010).
     *
     *
     * If you are calculating the stress with vdW-DF, please also cite:
     *
     *   R. Sabatini, E. Kucukbenli, B. Kolb, T. Thonhauser, and
     *   S. de Gironcoli, J. Phys.: Condens. Matter 24, 424209 (2012).
     *

     Carrying out vdW-DF run using the following parameters:

     Nqs =      20    Nr_points =    1024   r_max =   100.000
     q_mesh =
               0.00001000     0.04494208     0.09755937     0.15916263
               0.23128650     0.31572767     0.41458969     0.53033537
               0.66584808     0.82450364     1.01025438     1.22772762
               1.48234092     1.78043706     2.12944203     2.53805004
               3.01644009     3.57652955     4.23227104     5.00000000

     Gradients computed in reciprocal space

     Adding external electric field

     Computed dipole along edir(3) :
        Dipole               -6.7770 Ry au,        -17.2253 Debye
        Dipole field         -0.0131 Ry au

        Potential amp.        1.2262 Ry
        Total length         46.8051 bohr

     Starting wfc are  112 randomized atomic wfcs

     Self-consistent Calculation

     iteration #  1     ecut=    36.75 Ry     beta=0.30
     Davidson diagonalization with overlap
     ethr =  1.00E-02,  avg # of iterations =  8.5

[...]

     total energy              =   -1085.19799514 Ry
     Harris-Foulkes estimate   =   -1636.06828831 Ry
     estimated scf accuracy    <    1178.95289953 Ry

[...]

     End of self-consistent calculation

          k = 0.0000 0.0000 0.0000 ( 24345 PWs)   bands (ev):

   -16.4595 -15.4825 -15.4825 -15.4794 -15.3969 -15.3853 -15.3853 -15.3732
   -15.3728 -15.3728 -15.3675 -15.3418 -15.3227 -15.3200 -15.3200 -15.3048
   -15.3048 -15.2917 -15.2911 -15.2911 -15.2629 -15.2629 -15.2600 -15.2514
   -15.2514 -15.2508 -15.2150 -15.2083 -15.2083 -15.1913 -15.1913 -15.1290
   -15.1290 -15.1195 -15.0973 -15.0973 -15.0616 -15.0616 -15.0563 -15.0563
   -15.0436 -15.0312 -15.0312 -15.0275 -15.0118 -15.0118 -15.0018 -14.9923
   -14.9843 -14.9843 -14.9752 -14.9752 -14.9526 -14.9488 -14.9488 -14.9304
   -14.7872 -14.7872 -14.6873 -14.6873 -14.1444  -9.4876  -8.0472  -5.9044
    -4.6629  -4.6629  -4.6466  -4.3702  -4.3702  -4.3444  -3.2117  -3.0944
    -3.0943  -2.8761  -2.8761  -2.8719  -2.4322  -1.7506  -1.3992  -1.3992
    -1.1065  -1.1065  -1.0081  -0.3599  -0.3599   0.0238   0.9544   2.4197
     2.5403   2.5403   2.6200

[...]

          k =-0.0756 0.0436 0.0000 ( 24448 PWs)   bands (ev):

[...]

     the Fermi energy is    -0.3095 ev

!    total energy              =   -1649.72121736 Ry
     Harris-Foulkes estimate   =   -1649.72122285 Ry
     estimated scf accuracy    <       0.00000262 Ry

     The total energy is the sum of the following terms:

     one-electron contribution =   -9400.13175095 Ry
     hartree contribution      =    4778.48934878 Ry
     xc contribution           =    -476.99015655 Ry
     ewald contribution        =    3448.95313159 Ry
     electric field correction =       0.00201698 Ry
     smearing contrib. (-TS)   =      -0.04380721 Ry

     convergence has been achieved in  22 iterations

 BEEF-vdW xc energy contributions
           1 :   -417.680799873021
           2 :    381.452366160324
           3 :   -320.420135427049
           4 :    251.857516018427
           5 :   -191.393238654433
           6 :    147.407450233790
           7 :   -119.540088741493
           8 :    101.360117433792
           9 :   -85.2600474112129
          10 :    66.7469527700855
          11 :   -46.0307182178524
          12 :    26.5884707753730
          13 :   -12.1382841680802
          14 :    4.11716249612954
          15 :   -1.07020316611994
          16 :  -7.327079491381028E-002
          17 :    1.98298970064786
          18 :   -5.54415796639967
          19 :    9.82936892584985
[...]

[...]

   This run was terminated on:  15: 5:10  16Jan2018

[...]

     Program PWSCF v.5.1rc2 (svn rev. 11289) starts on 16Jan2018 at 15: 5:16

[...]

     Total force =     0.039955     Total SCF correction =     0.001958

[...]

   This run was terminated on:  15:28:17  16Jan2018

[...]

     Program PWSCF v.5.1rc2 (svn rev. 11289) starts on 16Jan2018 at 15:28:22

     Current dimensions of program PWSCF are:
     Max number of different atomic species (ntypx) = 10
     Max number of k-points (npk) =  40000
     Max angular momentum in pseudopotentials (lmaxx) =  3
     Presently stress not available with electric field

     IMPORTANT: XC functional enforced from input :
     Exchange-correlation      = BEEF-VDW ( 1  4 27 13 2)
     Any further DFT definition will be discarded
     Please, verify this is what you really want

     Subspace diagonalization in iterative solution of the eigenvalue problem:
     a serial algorithm will be used

     bravais-lattice index     =            0
     lattice parameter (alat)  =       1.8897  a.u.
     unit-cell volume          =    6501.5726 (a.u.)^3
     number of atoms/cell      =           13
     number of atomic types    =            2
     number of electrons       =       162.00
     number of Kohn-Sham states=           91
     kinetic-energy cutoff     =      36.7493  Ry
     charge density cutoff     =     367.4932  Ry
     convergence threshold     =      1.0E-05
     mixing beta               =       0.3000
     number of iterations used =           10  plain     mixing
     Exchange-correlation      = BEEF-VDW ( 1  4 27 13 2)
     nstep                     =           50

     celldm(1)=   1.889726  celldm(2)=   0.000000  celldm(3)=   0.000000
     celldm(4)=   0.000000  celldm(5)=   0.000000  celldm(6)=   0.000000

     crystal axes: (cart. coord. in units of alat)
               a(1) = (   6.617606   0.000000   0.000000 )
               a(2) = (   3.308803   5.731015   0.000000 )
               a(3) = (   0.000000   0.000000  25.403253 )

     reciprocal axes: (cart. coord. in units 2 pi/alat)
               b(1) = (  0.151112 -0.087245  0.000000 )
               b(2) = (  0.000000  0.174489  0.000000 )
               b(3) = (  0.000000  0.000000  0.039365 )

     PseudoPot. # 1 for In read from file:
     /afs/slac.stanford.edu/u/if/mamunm/psp/gbrv1.5pbe/In.UPF
     MD5 check sum: 90777abd96fbb83f2e67db2a40c566b9
     Pseudo is Ultrasoft + core correction, Zval = 13.0
     Generated by new atomic code, or converted to UPF format
     Using radial grid of  889 points,  6 beta functions with:
                l(1) =   0
                l(2) =   0
                l(3) =   1
                l(4) =   1
                l(5) =   2
                l(6) =   2
     Q(r) pseudized with  6 coefficients,  rinner =    1.400   1.400   1.400
                                                       1.400   1.400

     PseudoPot. # 2 for O  read from file:
     /afs/slac.stanford.edu/u/if/mamunm/psp/gbrv1.5pbe/O.UPF
     MD5 check sum: 734c27235a0248c51dbae37a1fbe46ec
     Pseudo is Ultrasoft + core correction, Zval =  6.0
     Generated by new atomic code, or converted to UPF format
     Using radial grid of  737 points,  5 beta functions with:
                l(1) =   0
                l(2) =   0
                l(3) =   1
                l(4) =   1
                l(5) =   2
     Q(r) pseudized with  8 coefficients,  rinner =    0.900   0.900   0.900
                                                       0.900   0.900

     vdW kernel table read from file vdW_kernel_table
     MD5 check sum: 095c7af220d748ca6e76c0b4c6cfb241

     atomic species   valence    mass     pseudopotential
        In1           13.00   114.81800     In( 1.00)
        O1             6.00    15.99900     O ( 1.00)

     No symmetry found

   Cartesian axes

     site n.     atom                  positions (alat units)
         1           In1 tau(   1) = (   1.6544016   0.9551692  10.0000000  )
         2           In1 tau(   2) = (   4.9632047   0.9551692  10.0000000  )
         3           In1 tau(   3) = (   3.3088031   3.8206768  10.0000000  )
         4           In1 tau(   4) = (   6.6176063   3.8206768  10.0000000  )
         5           In1 tau(   5) = (   6.6176063   1.9103384  12.7016265  )
         6           In1 tau(   6) = (   3.3088031   1.9103384  12.7016265  )
         7           In1 tau(   7) = (   8.2720078   4.7758460  12.7016265  )
         8           In1 tau(   8) = (   4.9632047   4.7758460  12.7016265  )
         9           In1 tau(   9) = (   6.6173877   0.0002270  15.0456180  )
        10           In1 tau(  10) = (   3.3086246   0.0014624  15.9631676  )
        11           In1 tau(  11) = (   1.6555009   2.8651219  15.9628712  )
        12           In1 tau(  12) = (   4.9619312   2.8651494  15.9632021  )
        13           O1  tau(  13) = (   3.3093978   5.7303003  17.0163916  )

     number of k points=    20  Fermi-Dirac smearing, width (Ry)=  0.0110
                       cart. coord. in units 2pi/alat
        k(    1) = (   0.0000000   0.0000000   0.0000000), wk =   0.0555556
        k(    2) = (   0.0000000   0.0290815   0.0000000), wk =   0.1111111
        k(    3) = (   0.0000000   0.0581631   0.0000000), wk =   0.1111111
        k(    4) = (   0.0000000  -0.0872446   0.0000000), wk =   0.0555556
        k(    5) = (   0.0251853  -0.0145408   0.0000000), wk =   0.1111111
        k(    6) = (   0.0251853   0.0145408   0.0000000), wk =   0.1111111
        k(    7) = (   0.0251853   0.0436223   0.0000000), wk =   0.1111111
        k(    8) = (   0.0251853  -0.1017853   0.0000000), wk =   0.1111111
        k(    9) = (   0.0251853  -0.0727038   0.0000000), wk =   0.1111111
        k(   10) = (   0.0251853  -0.0436223   0.0000000), wk =   0.1111111
        k(   11) = (   0.0503707  -0.0290815   0.0000000), wk =   0.1111111
        k(   12) = (   0.0503707   0.0000000   0.0000000), wk =   0.1111111
        k(   13) = (   0.0503707   0.0290815   0.0000000), wk =   0.1111111
        k(   14) = (   0.0503707  -0.1163261   0.0000000), wk =   0.1111111
        k(   15) = (   0.0503707  -0.0872446   0.0000000), wk =   0.1111111
        k(   16) = (   0.0503707  -0.0581631   0.0000000), wk =   0.1111111
        k(   17) = (  -0.0755560   0.0436223   0.0000000), wk =   0.0555556
        k(   18) = (  -0.0755560   0.0727038   0.0000000), wk =   0.1111111
        k(   19) = (  -0.0755560   0.1017853   0.0000000), wk =   0.1111111
        k(   20) = (  -0.0755560  -0.0436223   0.0000000), wk =   0.0555556

     Largest allocated arrays     est. size (Mb)     dimensions
     Largest temporary arrays     est. size (Mb)     dimensions

     Initial potential from superposition of free atoms
     Check: negative starting charge=   -0.000403

     starting charge  143.99999, renormalised to  162.00000

[...]

     *
     * You are using vdW-DF for exchange-correlation in this calculation.
     * Please cite the following three references that made this development
     * possible:
     *
     *   M. Dion, H. Rydberg, E. Schroder, D. C. Langreth, and
     *   B. I. Lundqvist, Phys. Rev. Lett. 92, 246401 (2004).
     *
     *   T. Thonhauser, V. R. Cooper, S. Li, A. Puzder, P. Hyldgaard, and
     *   D. C. Langreth, Phys. Rev. B 76, 125112 (2007).
     *
     *   G. Roman-Perez and J. M. Soler, Phys. Rev. Lett. 103, 096102 (2009).
     *
     *
     * If you are using vdW-DF2, please also cite:
     *
     *   K. Lee, E. D. Murray, L. Kong, B. I. Lundqvist, and
     *   D. C. Langreth, Phys. Rev. B 82, 081101(R) (2010).
     *
     *
     * If you are calculating the stress with vdW-DF, please also cite:
     *
     *   R. Sabatini, E. Kucukbenli, B. Kolb, T. Thonhauser, and
     *   S. de Gironcoli, J. Phys.: Condens. Matter 24, 424209 (2012).
     *

     Carrying out vdW-DF run using the following parameters:

     Nqs =      20    Nr_points =    1024   r_max =   100.000
     q_mesh =
               0.00001000     0.04494208     0.09755937     0.15916263
               0.23128650     0.31572767     0.41458969     0.53033537
               0.66584808     0.82450364     1.01025438     1.22772762
               1.48234092     1.78043706     2.12944203     2.53805004
               3.01644009     3.57652955     4.23227104     5.00000000

     Gradients computed in reciprocal space

[...]

     Starting wfc are  112 randomized atomic wfcs

     Self-consistent Calculation

[...]

     iteration #  4     ecut=    36.75 Ry     beta=0.30
     Davidson diagonalization with overlap
     c_bands:  1 eigenvalues not converged
     c_bands:  3 eigenvalues not converged
     c_bands:  4 eigenvalues not converged
     ethr =  1.00E-02,  avg # of iterations = 19.9

[...]

     total energy              =   -1649.75613774 Ry
     Harris-Foulkes estimate   =   -1649.75619363 Ry
     estimated scf accuracy    <       0.00015944 Ry

     iteration # 58     ecut=    36.75 Ry     beta=0.30
     Davidson diagonalization with overlap
     ethr =  1.66E-08,  avg # of iterations =  3.5

[...]

     negative rho (up, down):  1.207E-03 0.000E+00

     Adding external electric field

     Computed dipole along edir(3) :
        Dipole               -0.4127 Ry au,         -1.0490 Debye
        Dipole field         -0.0008 Ry au

        Potential amp.        0.0747 Ry
        Total length         46.8051 bohr

     End of self-consistent calculation

[...]

          k = 0.0504-0.0582 0.0000 ( 24479 PWs)   bands (ev):

[...]

          k =-0.0756-0.0436 0.0000 ( 24448 PWs)   bands (ev):

   -16.7690 -14.8038 -14.7886 -14.7878 -14.7604 -14.7524 -14.7324 -14.7202
   -14.7175 -14.7163 -14.7069 -14.7003 -14.6886 -14.6824 -14.6808 -14.6791
   -14.6696 -14.6652 -14.6612 -14.6581 -14.6575 -14.6469 -14.6430 -14.6362
   -14.6308 -14.6307 -14.6271 -14.6196 -14.6150 -14.6121 -14.6040 -14.6019
   -14.5851 -14.5807 -14.5682 -14.5643 -14.5614 -14.5507 -14.5389 -14.5352
   -14.5229 -14.5193 -14.5163 -14.5062 -14.4994 -14.4945 -14.4893 -14.4773
   -14.4771 -14.4637 -14.4580 -14.4354 -14.4245 -14.4183 -14.4091 -14.3969
   -14.3767 -14.3735 -14.2280 -14.2218 -13.6403  -7.5737  -7.3598  -6.0618
    -6.0512  -4.9860  -4.9160  -4.5707  -4.3906  -3.7147  -3.7022  -2.4553
    -2.3372  -1.1905  -1.1457  -1.0525  -0.6945  -0.0688  -0.0235   0.0297
     0.5526   0.5775   1.0944   1.2285   1.6536   1.8515   1.9503   2.2516
     2.6080   2.7236   2.7432

     the Fermi energy is     0.3404 ev

!    total energy              =   -1649.75613883 Ry
     Harris-Foulkes estimate   =   -1649.75621125 Ry
     estimated scf accuracy    <       0.00000868 Ry

     The total energy is the sum of the following terms:

     one-electron contribution =   -9073.74209350 Ry
     hartree contribution      =    4618.02254283 Ry
     xc contribution           =    -476.94349408 Ry
     ewald contribution        =    3282.94596691 Ry
     electric field correction =       0.00032924 Ry
     smearing contrib. (-TS)   =      -0.03939023 Ry

     convergence has been achieved in  58 iterations

 BEEF-vdW xc energy contributions
           1 :   -417.625082690735
           2 :    381.306138485736
           3 :   -320.126357001727
           4 :    251.458211097370
           5 :   -191.021486646646
           6 :    147.179966924136
           7 :   -119.459327111481
           8 :    101.316490164694
           9 :   -85.1260384778760
          10 :    66.4792974620035
          11 :   -45.6995173978752
          12 :    26.3209653067819
          13 :   -12.0299731931316
          14 :    4.17303772365250
          15 :   -1.21095441155359
          16 :   5.233912367071980E-002
          17 :    1.92439475881508
          18 :   -5.53658595573006
          19 :    9.82512348076864
          20 :   -13.1495824888467
          21 :    14.4461715504153
          22 :   -13.8265663929678
          23 :    12.2853326930685
          24 :   -10.9141411654822
          25 :    10.2515787918906
          26 :   -10.1600173929525
          27 :    10.1649120470939
          28 :   -9.89533877027270
          29 :    9.29041896894523
          30 :   -8.49972222131271
          31 :   -38.0118653028325
          32 :   -27.5075221311962

     Forces acting on atoms (Ry/au):

     negative rho (up, down):  1.207E-03 0.000E+00
     atom    1 type  1   force =    -0.00106482   -0.00061790   -0.00852923
     atom    2 type  1   force =     0.00106361   -0.00061680   -0.00853667
     atom    3 type  1   force =     0.00000047    0.00123023   -0.00847705
     atom    4 type  1   force =    -0.00000615    0.00000235   -0.01019173
     atom    5 type  1   force =     0.00000529    0.01582823    0.00656656
     atom    6 type  1   force =    -0.00000791   -0.00001601    0.01757052
     atom    7 type  1   force =    -0.01372598   -0.00791063    0.00657426
     atom    8 type  1   force =     0.01372775   -0.00790339    0.00659580
     atom    9 type  1   force =    -0.00000921    0.00002717   -0.00020326
     atom   10 type  1   force =    -0.00001900    0.00002363   -0.00020301
     atom   11 type  1   force =     0.00002340   -0.00000332   -0.00019231
     atom   12 type  1   force =    -0.00003028    0.00001317   -0.00020291
     atom   13 type  2   force =     0.00004283   -0.00005673   -0.00077096

     Total force =     0.038957     Total SCF correction =     0.017646
     SCF correction compared to forces is large: reduce conv_thr to get better values

     entering subroutine stress ...

     negative rho (up, down):  1.207E-03 0.000E+00
          total   stress  (Ry/bohr**3)                   (kbar)     P=    4.00
   0.00003262   0.00000000   0.00000002          4.80      0.00      0.00
   0.00000000   0.00003262  -0.00000003          0.00      4.80     -0.00
   0.00000002  -0.00000003   0.00001641          0.00     -0.00      2.41

 !ASE

     Writing output data file calc.save

     General routines

     Parallel routines

   This run was terminated on:  15:49: 1  16Jan2018

   JOB DONE.
Job  /afs/slac/g/suncat/bin/suncat-tsmpirun -x LD_LIBRARY_PATH -wdir /scratch/qe842449_aik6H pw.x -in pw.inp

TID   HOST_NAME   COMMAND_LINE            STATUS            TERMINATION_TIME
00000 suncat2070 pw.x -in pw.inp   Done                     01/16/2018 15:49:02
00001 suncat2070 pw.x -in pw.inp   Done                     01/16/2018 15:49:02
00002 suncat2070 pw.x -in pw.inp   Done                     01/16/2018 15:49:02
00003 suncat2070 pw.x -in pw.inp   Done                     01/16/2018 15:49:01
00004 suncat2070 pw.x -in pw.inp   Done                     01/16/2018 15:49:02
00005 suncat2070 pw.x -in pw.inp   Done                     01/16/2018 15:49:02
00006 suncat2070 pw.x -in pw.inp   Done                     01/16/2018 15:49:02
00007 suncat2070 pw.x -in pw.inp   Done                     01/16/2018 15:49:02
00008 suncat2070 pw.x -in pw.inp   Done                     01/16/2018 15:49:02
00009 suncat2070 pw.x -in pw.inp   Done                     01/16/2018 15:49:02
00010 suncat2070 pw.x -in pw.inp   Done                     01/16/2018 15:49:02
00011 suncat2070 pw.x -in pw.inp   Done                     01/16/2018 15:49:02
00012 suncat2070 pw.x -in pw.inp   Done                     01/16/2018 15:49:02
00013 suncat2070 pw.x -in pw.inp   Done                     01/16/2018 15:49:02
00014 suncat2070 pw.x -in pw.inp   Done                     01/16/2018 15:49:02
00015 suncat2070 pw.x -in pw.inp   Done                     01/16/2018 15:49:02
00016 suncat2062 pw.x -in pw.inp   Done                     01/16/2018 15:49:02
00017 suncat2062 pw.x -in pw.inp   Done                     01/16/2018 15:49:02
00018 suncat2062 pw.x -in pw.inp   Done                     01/16/2018 15:49:02
00019 suncat2062 pw.x -in pw.inp   Done                     01/16/2018 15:49:02
00020 suncat2062 pw.x -in pw.inp   Done                     01/16/2018 15:49:02
00021 suncat2062 pw.x -in pw.inp   Done                     01/16/2018 15:49:02
00022 suncat2062 pw.x -in pw.inp   Done                     01/16/2018 15:49:02
00023 suncat2062 pw.x -in pw.inp   Done                     01/16/2018 15:49:01
00024 suncat2062 pw.x -in pw.inp   Done                     01/16/2018 15:49:02
00025 suncat2062 pw.x -in pw.inp   Done                     01/16/2018 15:49:02
00026 suncat2062 pw.x -in pw.inp   Done                     01/16/2018 15:49:02
00027 suncat2062 pw.x -in pw.inp   Done                     01/16/2018 15:49:02
00028 suncat2062 pw.x -in pw.inp   Done                     01/16/2018 15:49:02
00029 suncat2062 pw.x -in pw.inp   Done                     01/16/2018 15:49:02
00030 suncat2062 pw.x -in pw.inp   Done                     01/16/2018 15:49:02
00031 suncat2062 pw.x -in pw.inp   Done                     01/16/2018 15:49:02