     Program PWSCF v.5.1rc2 (svn rev. 11289) starts on 16Jan2018 at 14:43: 4

     Current dimensions of program PWSCF are:
     Max number of different atomic species (ntypx) = 10
     Max number of k-points (npk) =  40000
     Max angular momentum in pseudopotentials (lmaxx) =  3
     Presently stress not available with electric field

     IMPORTANT: XC functional enforced from input :
     Exchange-correlation      = BEEF-VDW ( 1  4 27 13 2)
     Any further DFT definition will be discarded
     Please, verify this is what you really want

     Subspace diagonalization in iterative solution of the eigenvalue problem:
     a serial algorithm will be used

     bravais-lattice index     =            0
     lattice parameter (alat)  =       1.8897  a.u.
     unit-cell volume          =    4481.2752 (a.u.)^3
     number of atoms/cell      =           13
     number of atomic types    =            2
     number of electrons       =       193.00
     number of Kohn-Sham states=          106
     kinetic-energy cutoff     =      36.7493  Ry
     charge density cutoff     =     367.4932  Ry
     convergence threshold     =      1.0E-05
     mixing beta               =       0.3000
     number of iterations used =           10  plain     mixing
     Exchange-correlation      = BEEF-VDW ( 1  4 27 13 2)
     nstep                     =           50

     celldm(1)=   1.889726  celldm(2)=   0.000000  celldm(3)=   0.000000
     celldm(4)=   0.000000  celldm(5)=   0.000000  celldm(6)=   0.000000

     crystal axes: (cart. coord. in units of alat)
               a(1) = (   5.587338   0.000000   0.000000 )
               a(2) = (   2.793669   4.838777   0.000000 )
               a(3) = (   0.000000   0.000000  24.562042 )

     reciprocal axes: (cart. coord. in units 2 pi/alat)
               b(1) = (  0.178976 -0.103332  0.000000 )
               b(2) = (  0.000000  0.206664  0.000000 )
               b(3) = (  0.000000  0.000000  0.040713 )

     PseudoPot. # 1 for Pt read from file:
     /afs/slac.stanford.edu/u/if/mamunm/psp/gbrv1.5pbe/Pt.UPF
     MD5 check sum: f09d6de1a584b5a045c4fc126da2d0c4
     Pseudo is Ultrasoft + core correction, Zval = 16.0
     Generated by new atomic code, or converted to UPF format
     Using radial grid of  985 points,  6 beta functions with:
                l(1) =   0
                l(2) =   0
                l(3) =   1
                l(4) =   1
                l(5) =   2
                l(6) =   2
     Q(r) pseudized with  8 coefficients,  rinner =    1.300   1.300   1.300
                                                       1.300   1.300

     PseudoPot. # 2 for H  read from file:
     /afs/slac.stanford.edu/u/if/mamunm/psp/gbrv1.5pbe/H.UPF
     MD5 check sum: 761ae9a214b05c3daf00ab9f6b793d6f
     Pseudo is Ultrasoft, Zval =  1.0
     Generated by new atomic code, or converted to UPF format
     Using radial grid of  615 points,  2 beta functions with:
                l(1) =   0
                l(2) =   0
     Q(r) pseudized with  8 coefficients,  rinner =    0.700

     vdW kernel table read from file vdW_kernel_table
     MD5 check sum: 095c7af220d748ca6e76c0b4c6cfb241

     atomic species   valence    mass     pseudopotential
        Pt1           16.00   195.08400     Pt( 1.00)
        H1             1.00     1.00800     H ( 1.00)

     No symmetry found

   Cartesian axes

     site n.     atom                  positions (alat units)
         1           Pt1 tau(   1) = (   1.3968345   0.8064628  10.0000000  )
         2           Pt1 tau(   2) = (   4.1905036   0.8064628  10.0000000  )
         3           Pt1 tau(   3) = (   2.7936691   3.2258512  10.0000000  )
         4           Pt1 tau(   4) = (   5.5873381   3.2258512  10.0000000  )
         5           Pt1 tau(   5) = (   5.5873381   1.6129256  12.2810212  )
         6           Pt1 tau(   6) = (   2.7936691   1.6129256  12.2810212  )
         7           Pt1 tau(   7) = (   6.9841727   4.0323140  12.2810212  )
         8           Pt1 tau(   8) = (   4.1905036   4.0323140  12.2810212  )
         9           Pt1 tau(   9) = (   0.0000000   0.0000000  14.5620425  )
        10           Pt1 tau(  10) = (   2.7936691   0.0000000  14.5620425  )
        11           Pt1 tau(  11) = (   1.3968345   2.4193884  14.5620425  )
        12           Pt1 tau(  12) = (   4.1905036   2.4193884  14.5620425  )
        13           H1  tau(  13) = (   1.3968345   0.8064628  16.2320425  )

     number of k points=    20  Fermi-Dirac smearing, width (Ry)=  0.0110
                       cart. coord. in units 2pi/alat
        k(    1) = (   0.0000000   0.0000000   0.0000000), wk =   0.0555556
        k(    2) = (   0.0000000   0.0344440   0.0000000), wk =   0.1111111
        k(    3) = (   0.0000000   0.0688879   0.0000000), wk =   0.1111111
        k(    4) = (   0.0000000  -0.1033319   0.0000000), wk =   0.0555556
        k(    5) = (   0.0298294  -0.0172220   0.0000000), wk =   0.1111111
        k(    6) = (   0.0298294   0.0172220   0.0000000), wk =   0.1111111
        k(    7) = (   0.0298294   0.0516660   0.0000000), wk =   0.1111111
        k(    8) = (   0.0298294  -0.1205539   0.0000000), wk =   0.1111111
        k(    9) = (   0.0298294  -0.0861099   0.0000000), wk =   0.1111111
        k(   10) = (   0.0298294  -0.0516660   0.0000000), wk =   0.1111111
        k(   11) = (   0.0596587  -0.0344440   0.0000000), wk =   0.1111111
        k(   12) = (   0.0596587   0.0000000   0.0000000), wk =   0.1111111
        k(   13) = (   0.0596587   0.0344440   0.0000000), wk =   0.1111111
        k(   14) = (   0.0596587  -0.1377759   0.0000000), wk =   0.1111111
        k(   15) = (   0.0596587  -0.1033319   0.0000000), wk =   0.1111111
        k(   16) = (   0.0596587  -0.0688879   0.0000000), wk =   0.1111111
        k(   17) = (  -0.0894881   0.0516660   0.0000000), wk =   0.0555556
        k(   18) = (  -0.0894881   0.0861099   0.0000000), wk =   0.1111111
        k(   19) = (  -0.0894881   0.1205539   0.0000000), wk =   0.1111111
        k(   20) = (  -0.0894881  -0.0516660   0.0000000), wk =   0.0555556

     Largest allocated arrays     est. size (Mb)     dimensions
     Largest temporary arrays     est. size (Mb)     dimensions

     Initial potential from superposition of free atoms
     Check: negative starting charge=   -2.200764

     starting charge  186.99986, renormalised to  193.00000

     negative rho (up, down):  2.271E+00 0.000E+00

     *
     * You are using vdW-DF for exchange-correlation in this calculation.
     * Please cite the following three references that made this development
     * possible:
     *
     *   M. Dion, H. Rydberg, E. Schroder, D. C. Langreth, and
     *   B. I. Lundqvist, Phys. Rev. Lett. 92, 246401 (2004).
     *
     *   T. Thonhauser, V. R. Cooper, S. Li, A. Puzder, P. Hyldgaard, and
     *   D. C. Langreth, Phys. Rev. B 76, 125112 (2007).
     *
     *   G. Roman-Perez and J. M. Soler, Phys. Rev. Lett. 103, 096102 (2009).
     *
     *
     * If you are using vdW-DF2, please also cite:
     *
     *   K. Lee, E. D. Murray, L. Kong, B. I. Lundqvist, and
     *   D. C. Langreth, Phys. Rev. B 82, 081101(R) (2010).
     *
     *
     * If you are calculating the stress with vdW-DF, please also cite:
     *
     *   R. Sabatini, E. Kucukbenli, B. Kolb, T. Thonhauser, and
     *   S. de Gironcoli, J. Phys.: Condens. Matter 24, 424209 (2012).
     *

     Carrying out vdW-DF run using the following parameters:

     Nqs =      20    Nr_points =    1024   r_max =   100.000
     q_mesh =
               0.00001000     0.04494208     0.09755937     0.15916263
               0.23128650     0.31572767     0.41458969     0.53033537
               0.66584808     0.82450364     1.01025438     1.22772762
               1.48234092     1.78043706     2.12944203     2.53805004
               3.01644009     3.57652955     4.23227104     5.00000000

     Gradients computed in reciprocal space

     Adding external electric field

     Computed dipole along edir(3) :
        Dipole               -0.2395 Ry au,         -0.6087 Debye
        Dipole field         -0.0007 Ry au

        Potential amp.        0.0608 Ry
        Total length         45.2551 bohr

     Starting wfc are  145 randomized atomic wfcs

     Self-consistent Calculation

     iteration #  1     ecut=    36.75 Ry     beta=0.30
     Davidson diagonalization with overlap
     ethr =  1.00E-02,  avg # of iterations =  3.0

[...]

     total energy              =   -2545.40643420 Ry
     Harris-Foulkes estimate   =   -2552.52353383 Ry
     estimated scf accuracy    <      16.36698766 Ry

[...]

     End of self-consistent calculation

          k = 0.0000 0.0000 0.0000 ( 16787 PWs)   bands (ev):

   -51.2540 -51.2534 -51.2236 -51.1844 -51.0871 -51.0692 -51.0679 -51.0034
   -51.0031 -50.9852 -50.9737 -50.9409 -50.9403 -50.9045 -50.9041 -50.8715
   -50.8709 -50.8696 -50.7468 -50.7395 -50.7388 -50.6548 -50.6545 -50.6513
   -50.6199 -50.6197 -50.5732 -50.5731 -50.5719 -50.5395 -50.5386 -50.4692
   -50.4383 -50.4237 -50.4227 -50.4216  -7.0371  -5.3739  -4.8811  -4.5214
    -4.4993  -4.4991  -4.3040  -4.2845  -4.2844  -3.9133  -3.8231  -3.8230
    -3.7013  -3.6683  -3.6681  -2.5324  -2.2724  -2.2720  -1.9075  -1.8879
    -1.8878  -1.7233  -1.6242  -1.6242  -1.4856  -1.3324  -1.3323  -1.1839
    -1.1837  -1.1674  -1.1014  -1.1014  -0.7948  -0.5711  -0.5705  -0.3458
     0.3236   0.3239   0.3281   0.3549   0.3549   0.5264   0.5269   0.6856
     0.9755   0.9756   1.5168   1.5170   1.5175   1.5380   1.5691   1.5695
     1.6863   1.6864   1.9277   1.9282   1.9387   1.9987   2.2042   2.2262
     2.2266   2.3039   2.3042   2.3110   2.9902   3.0800   3.0801   4.1074
     4.7430   4.7434

[...]

          k =-0.0895 0.0517 0.0000 ( 16880 PWs)   bands (ev):

[...]

     the Fermi energy is     1.7665 ev

!    total energy              =   -2549.31247961 Ry
     Harris-Foulkes estimate   =   -2549.31248460 Ry
     estimated scf accuracy    <       0.00000739 Ry

     The total energy is the sum of the following terms:

     one-electron contribution =  -20229.48503039 Ry
     hartree contribution      =   10151.64987662 Ry
     xc contribution           =    -704.08089238 Ry
     ewald contribution        =    8232.71258720 Ry
     electric field correction =       0.00000026 Ry
     smearing contrib. (-TS)   =      -0.10902091 Ry

     convergence has been achieved in  14 iterations

 BEEF-vdW xc energy contributions
           1 :   -626.974965347364
           2 :    583.688679642057
           3 :   -505.979481247571
           4 :    408.542304005450
           5 :   -307.540257750830
           6 :    216.468968401691
           7 :   -143.441195314106
           8 :    90.4613312504476
           9 :   -54.6339999533051
          10 :    30.5800296843221
          11 :   -13.0203587349699
          12 :   -1.43492396770989
          13 :    13.7618181520630
          14 :   -23.1615906801250
          15 :    28.3141629644994
          16 :   -28.5797805210467
          17 :    24.6216112255330
          18 :   -18.2764420361622
          19 :    11.8528588571991
          20 :   -7.26437712399127
          21 :    5.40124551766542
[...]

     Program PWSCF v.5.1rc2 (svn rev. 11289) starts on 16Jan2018 at 14:53:52

[...]

     Check: negative/imaginary core charge=   -0.000001    0.000000

[...]

   This run was terminated on:  15: 4:46  16Jan2018

[...]

     Program PWSCF v.5.1rc2 (svn rev. 11289) starts on 16Jan2018 at 15: 4:52

[...]

   This run was terminated on:  15:16: 6  16Jan2018

[...]

   This run was terminated on:  15:50: 8  16Jan2018

[...]

     Program PWSCF v.5.1rc2 (svn rev. 11289) starts on 16Jan2018 at 15:50:14

[...]

   This run was terminated on:  16: 1:35  16Jan2018

[...]

     Program PWSCF v.5.1rc2 (svn rev. 11289) starts on 16Jan2018 at 16: 1:40

     Current dimensions of program PWSCF are:
     Max number of different atomic species (ntypx) = 10
     Max number of k-points (npk) =  40000
     Max angular momentum in pseudopotentials (lmaxx) =  3
     Presently stress not available with electric field

     IMPORTANT: XC functional enforced from input :
     Exchange-correlation      = BEEF-VDW ( 1  4 27 13 2)
     Any further DFT definition will be discarded
     Please, verify this is what you really want

     Subspace diagonalization in iterative solution of the eigenvalue problem:
     a serial algorithm will be used

     bravais-lattice index     =            0
     lattice parameter (alat)  =       1.8897  a.u.
     unit-cell volume          =    4481.2752 (a.u.)^3
     number of atoms/cell      =           13
     number of atomic types    =            2
     number of electrons       =       193.00
     number of Kohn-Sham states=          106
     kinetic-energy cutoff     =      36.7493  Ry
     charge density cutoff     =     367.4932  Ry
     convergence threshold     =      1.0E-05
     mixing beta               =       0.3000
     number of iterations used =           10  plain     mixing
     Exchange-correlation      = BEEF-VDW ( 1  4 27 13 2)
     nstep                     =           50

     celldm(1)=   1.889726  celldm(2)=   0.000000  celldm(3)=   0.000000
     celldm(4)=   0.000000  celldm(5)=   0.000000  celldm(6)=   0.000000

     crystal axes: (cart. coord. in units of alat)
               a(1) = (   5.587338   0.000000   0.000000 )
               a(2) = (   2.793669   4.838777   0.000000 )
               a(3) = (   0.000000   0.000000  24.562042 )

     reciprocal axes: (cart. coord. in units 2 pi/alat)
               b(1) = (  0.178976 -0.103332  0.000000 )
               b(2) = (  0.000000  0.206664  0.000000 )
               b(3) = (  0.000000  0.000000  0.040713 )

     PseudoPot. # 1 for Pt read from file:
     /afs/slac.stanford.edu/u/if/mamunm/psp/gbrv1.5pbe/Pt.UPF
     MD5 check sum: f09d6de1a584b5a045c4fc126da2d0c4
     Pseudo is Ultrasoft + core correction, Zval = 16.0
     Generated by new atomic code, or converted to UPF format
     Using radial grid of  985 points,  6 beta functions with:
                l(1) =   0
                l(2) =   0
                l(3) =   1
                l(4) =   1
                l(5) =   2
                l(6) =   2
     Q(r) pseudized with  8 coefficients,  rinner =    1.300   1.300   1.300
                                                       1.300   1.300

     PseudoPot. # 2 for H  read from file:
     /afs/slac.stanford.edu/u/if/mamunm/psp/gbrv1.5pbe/H.UPF
     MD5 check sum: 761ae9a214b05c3daf00ab9f6b793d6f
     Pseudo is Ultrasoft, Zval =  1.0
     Generated by new atomic code, or converted to UPF format
     Using radial grid of  615 points,  2 beta functions with:
                l(1) =   0
                l(2) =   0
     Q(r) pseudized with  8 coefficients,  rinner =    0.700

     vdW kernel table read from file vdW_kernel_table
     MD5 check sum: 095c7af220d748ca6e76c0b4c6cfb241

     atomic species   valence    mass     pseudopotential
        Pt1           16.00   195.08400     Pt( 1.00)
        H1             1.00     1.00800     H ( 1.00)

     No symmetry found

   Cartesian axes

     site n.     atom                  positions (alat units)
         1           Pt1 tau(   1) = (   1.3968345   0.8064628  10.0000000  )
         2           Pt1 tau(   2) = (   4.1905036   0.8064628  10.0000000  )
         3           Pt1 tau(   3) = (   2.7936691   3.2258512  10.0000000  )
         4           Pt1 tau(   4) = (   5.5873381   3.2258512  10.0000000  )
         5           Pt1 tau(   5) = (   5.5873381   1.6129256  12.2810212  )
         6           Pt1 tau(   6) = (   2.7936691   1.6129256  12.2810212  )
         7           Pt1 tau(   7) = (   6.9841727   4.0323140  12.2810212  )
         8           Pt1 tau(   8) = (   4.1905036   4.0323140  12.2810212  )
         9           Pt1 tau(   9) = (   8.3572693   4.8251322  14.6666822  )
        10           Pt1 tau(  10) = (   5.6111287   4.8249960  14.6664146  )
        11           Pt1 tau(  11) = (   6.9840746   2.4468717  14.6664224  )
        12           Pt1 tau(  12) = (   4.1906916   2.4194322  14.6136067  )
        13           H1  tau(  13) = (   1.3966423   0.8064522  15.5554019  )

     number of k points=    20  Fermi-Dirac smearing, width (Ry)=  0.0110
                       cart. coord. in units 2pi/alat
        k(    1) = (   0.0000000   0.0000000   0.0000000), wk =   0.0555556
        k(    2) = (   0.0000000   0.0344440   0.0000000), wk =   0.1111111
        k(    3) = (   0.0000000   0.0688879   0.0000000), wk =   0.1111111
        k(    4) = (   0.0000000  -0.1033319   0.0000000), wk =   0.0555556
        k(    5) = (   0.0298294  -0.0172220   0.0000000), wk =   0.1111111
        k(    6) = (   0.0298294   0.0172220   0.0000000), wk =   0.1111111
        k(    7) = (   0.0298294   0.0516660   0.0000000), wk =   0.1111111
        k(    8) = (   0.0298294  -0.1205539   0.0000000), wk =   0.1111111
        k(    9) = (   0.0298294  -0.0861099   0.0000000), wk =   0.1111111
        k(   10) = (   0.0298294  -0.0516660   0.0000000), wk =   0.1111111
        k(   11) = (   0.0596587  -0.0344440   0.0000000), wk =   0.1111111
        k(   12) = (   0.0596587   0.0000000   0.0000000), wk =   0.1111111
        k(   13) = (   0.0596587   0.0344440   0.0000000), wk =   0.1111111
        k(   14) = (   0.0596587  -0.1377759   0.0000000), wk =   0.1111111
        k(   15) = (   0.0596587  -0.1033319   0.0000000), wk =   0.1111111
        k(   16) = (   0.0596587  -0.0688879   0.0000000), wk =   0.1111111
        k(   17) = (  -0.0894881   0.0516660   0.0000000), wk =   0.0555556
        k(   18) = (  -0.0894881   0.0861099   0.0000000), wk =   0.1111111
        k(   19) = (  -0.0894881   0.1205539   0.0000000), wk =   0.1111111
        k(   20) = (  -0.0894881  -0.0516660   0.0000000), wk =   0.0555556

     Largest allocated arrays     est. size (Mb)     dimensions
     Largest temporary arrays     est. size (Mb)     dimensions

     Check: negative/imaginary core charge=   -0.000001    0.000000

     Initial potential from superposition of free atoms
     Check: negative starting charge=   -2.203707

     starting charge  186.99986, renormalised to  193.00000

[...]

     *
     * You are using vdW-DF for exchange-correlation in this calculation.
     * Please cite the following three references that made this development
     * possible:
     *
     *   M. Dion, H. Rydberg, E. Schroder, D. C. Langreth, and
     *   B. I. Lundqvist, Phys. Rev. Lett. 92, 246401 (2004).
     *
     *   T. Thonhauser, V. R. Cooper, S. Li, A. Puzder, P. Hyldgaard, and
     *   D. C. Langreth, Phys. Rev. B 76, 125112 (2007).
     *
     *   G. Roman-Perez and J. M. Soler, Phys. Rev. Lett. 103, 096102 (2009).
     *
     *
     * If you are using vdW-DF2, please also cite:
     *
     *   K. Lee, E. D. Murray, L. Kong, B. I. Lundqvist, and
     *   D. C. Langreth, Phys. Rev. B 82, 081101(R) (2010).
     *
     *
     * If you are calculating the stress with vdW-DF, please also cite:
     *
     *   R. Sabatini, E. Kucukbenli, B. Kolb, T. Thonhauser, and
     *   S. de Gironcoli, J. Phys.: Condens. Matter 24, 424209 (2012).
     *

     Carrying out vdW-DF run using the following parameters:

     Nqs =      20    Nr_points =    1024   r_max =   100.000
     q_mesh =
               0.00001000     0.04494208     0.09755937     0.15916263
               0.23128650     0.31572767     0.41458969     0.53033537
               0.66584808     0.82450364     1.01025438     1.22772762
               1.48234092     1.78043706     2.12944203     2.53805004
               3.01644009     3.57652955     4.23227104     5.00000000

     Gradients computed in reciprocal space

[...]

     Starting wfc are  145 randomized atomic wfcs

     Self-consistent Calculation

[...]

     total energy              =   -2549.38448186 Ry
     Harris-Foulkes estimate   =   -2549.38448532 Ry
     estimated scf accuracy    <       0.00011943 Ry

     iteration # 14     ecut=    36.75 Ry     beta=0.30
     Davidson diagonalization with overlap
     ethr =  5.15E-08,  avg # of iterations =  1.0

[...]

     negative rho (up, down):  2.121E+00 0.000E+00

     Adding external electric field

     Computed dipole along edir(3) :
        Dipole                0.0146 Ry au,          0.0370 Debye
        Dipole field          0.0000 Ry au

        Potential amp.       -0.0037 Ry
        Total length         45.2551 bohr

     End of self-consistent calculation

[...]

          k = 0.0597-0.0689 0.0000 ( 16875 PWs)   bands (ev):

[...]

          k =-0.0895-0.0517 0.0000 ( 16880 PWs)   bands (ev):

   -51.1278 -51.1161 -51.0288 -51.0250 -51.0241 -51.0068 -50.9959 -50.9917
   -50.9893 -50.9789 -50.9486 -50.8998 -50.8908 -50.8898 -50.8626 -50.8368
   -50.8250 -50.8173 -50.8066 -50.7520 -50.7409 -50.7278 -50.7270 -50.7212
   -50.6905 -50.6339 -50.6242 -50.6203 -50.4799 -50.4732 -50.4632 -50.4553
   -50.4460 -50.4399 -50.4346 -50.3958  -5.7254  -5.1272  -4.8726  -3.8618
    -3.6432  -3.4750  -3.4245  -3.4069  -3.3460  -3.3276  -3.1807  -2.8892
    -2.8791  -2.6925  -2.6314  -2.5240  -2.4692  -2.1798  -2.1490  -2.1224
    -2.1183  -2.0281  -2.0029  -1.6586  -1.6419  -1.3230  -1.3111  -1.2860
    -1.2696  -1.1971  -1.0991  -1.0065  -0.9739  -0.9648  -0.9089  -0.9004
    -0.7994  -0.7761  -0.7107  -0.6875  -0.1819  -0.1584  -0.1538  -0.0709
    -0.0121   0.0262   0.1871   0.2287   0.2565   0.3529   0.4691   0.4838
     0.7794   0.8677   0.8998   0.9742   1.0105   1.0954   1.4870   1.5323
     1.6428   1.7014   1.9573   1.9686   3.0622   3.3294   3.9083   3.9484
     4.5185   4.7233

     the Fermi energy is     1.7413 ev

!    total energy              =   -2549.38448427 Ry
     Harris-Foulkes estimate   =   -2549.38448551 Ry
     estimated scf accuracy    <       0.00000160 Ry

     The total energy is the sum of the following terms:

     one-electron contribution =  -20012.11827798 Ry
     hartree contribution      =   10043.10065815 Ry
     xc contribution           =    -704.12789402 Ry
     ewald contribution        =    8123.86870140 Ry
     electric field correction =       0.00000060 Ry
     smearing contrib. (-TS)   =      -0.10767241 Ry

     convergence has been achieved in  14 iterations

 BEEF-vdW xc energy contributions
           1 :   -627.014177646243
           2 :    583.687605879893
           3 :   -505.914060128491
           4 :    408.416768439243
           5 :   -307.384919483548
           6 :    216.323530408030
           7 :   -143.335864845458
           8 :    90.4030069495107
           9 :   -54.6022759258177
          10 :    30.5369632985180
          11 :   -12.9309568075957
          12 :   -1.58095370196497
          13 :    13.9397602042407
          14 :   -23.3192548941349
          15 :    28.3953535555264
          16 :   -28.5543631648402
          17 :    24.5049610158967
          18 :   -18.1251046360308
          19 :    11.7375833314369
          20 :   -7.23513841153874
          21 :    5.46235066807242
          22 :   -6.09228042060795
          23 :    7.98106639856542
          24 :   -9.78715385404348
          25 :    10.5534579761464
          26 :   -10.0180103885248
          27 :    8.56911340684155
          28 :   -6.93211340295443
          29 :    5.77072056189161
          30 :   -5.39480133168399
          31 :   -51.3669315163584
          32 :   -38.0028432209385

     Forces acting on atoms (Ry/au):

     negative rho (up, down):  2.121E+00 0.000E+00
     atom    1 type  1   force =     0.00001445    0.00000684   -0.01484858
     atom    2 type  1   force =    -0.00001368   -0.00074182   -0.01778355
     atom    3 type  1   force =    -0.00064596    0.00035827   -0.01776833
     atom    4 type  1   force =     0.00064977    0.00037637   -0.01781961
     atom    5 type  1   force =     0.00128659   -0.00075856    0.01472183
     atom    6 type  1   force =    -0.00129315   -0.00074527    0.01475078
     atom    7 type  1   force =     0.00002108    0.00000977    0.02336578
     atom    8 type  1   force =    -0.00001476    0.00149660    0.01473674
     atom    9 type  1   force =    -0.00060637   -0.00038820   -0.00008862
     atom   10 type  1   force =     0.00059414   -0.00027256   -0.00008161
     atom   11 type  1   force =     0.00009476    0.00067392   -0.00007205
     atom   12 type  1   force =    -0.00010356   -0.00001764    0.00030527
     atom   13 type  2   force =     0.00001669    0.00000228    0.00058195

     Total force =     0.048761     Total SCF correction =     0.007019
     SCF correction compared to forces is large: reduce conv_thr to get better values

     entering subroutine stress ...

     negative rho (up, down):  2.121E+00 0.000E+00
          total   stress  (Ry/bohr**3)                   (kbar)     P=  -11.19
  -0.00013950  -0.00000000   0.00000001        -20.52     -0.00      0.00
  -0.00000000  -0.00013950   0.00000000         -0.00    -20.52      0.00
   0.00000001   0.00000000   0.00005084          0.00      0.00      7.48

 !ASE

     Writing output data file calc.save

     General routines

     Parallel routines

   This run was terminated on:  16:12:21  16Jan2018

   JOB DONE.
Job  /afs/slac/g/suncat/bin/suncat-tsmpirun -x LD_LIBRARY_PATH -wdir /scratch/qe842471_sN1yI pw.x -in pw.inp

TID   HOST_NAME   COMMAND_LINE            STATUS            TERMINATION_TIME
00000 suncat0264 pw.x -in pw.inp   Done                     01/16/2018 16:12:21
00001 suncat0264 pw.x -in pw.inp   Done                     01/16/2018 16:12:21
00002 suncat0264 pw.x -in pw.inp   Done                     01/16/2018 16:12:21
00003 suncat0264 pw.x -in pw.inp   Done                     01/16/2018 16:12:21
00004 suncat0264 pw.x -in pw.inp   Done                     01/16/2018 16:12:21
00005 suncat0264 pw.x -in pw.inp   Done                     01/16/2018 16:12:21
00006 suncat0264 pw.x -in pw.inp   Done                     01/16/2018 16:12:21
00007 suncat0264 pw.x -in pw.inp   Done                     01/16/2018 16:12:21
00008 suncat0259 pw.x -in pw.inp   Done                     01/16/2018 16:12:21
00009 suncat0259 pw.x -in pw.inp   Done                     01/16/2018 16:12:21
00010 suncat0259 pw.x -in pw.inp   Done                     01/16/2018 16:12:21
00011 suncat0259 pw.x -in pw.inp   Done                     01/16/2018 16:12:21
00012 suncat0259 pw.x -in pw.inp   Done                     01/16/2018 16:12:21
00013 suncat0259 pw.x -in pw.inp   Done                     01/16/2018 16:12:21
00014 suncat0259 pw.x -in pw.inp   Done                     01/16/2018 16:12:21
00015 suncat0259 pw.x -in pw.inp   Done                     01/16/2018 16:12:21
00016 suncat0258 pw.x -in pw.inp   Done                     01/16/2018 16:12:21
00017 suncat0258 pw.x -in pw.inp   Done                     01/16/2018 16:12:21
00018 suncat0258 pw.x -in pw.inp   Done                     01/16/2018 16:12:21
00019 suncat0258 pw.x -in pw.inp   Done                     01/16/2018 16:12:21
00020 suncat0258 pw.x -in pw.inp   Done                     01/16/2018 16:12:21
00021 suncat0258 pw.x -in pw.inp   Done                     01/16/2018 16:12:21
00022 suncat0258 pw.x -in pw.inp   Done                     01/16/2018 16:12:21
00023 suncat0258 pw.x -in pw.inp   Done                     01/16/2018 16:12:21
00024 suncat0256 pw.x -in pw.inp   Done                     01/16/2018 16:12:21
00025 suncat0256 pw.x -in pw.inp   Done                     01/16/2018 16:12:21
00026 suncat0256 pw.x -in pw.inp   Done                     01/16/2018 16:12:21
00027 suncat0256 pw.x -in pw.inp   Done                     01/16/2018 16:12:21
00028 suncat0256 pw.x -in pw.inp   Done                     01/16/2018 16:12:21
00029 suncat0256 pw.x -in pw.inp   Done                     01/16/2018 16:12:21
00030 suncat0256 pw.x -in pw.inp   Done                     01/16/2018 16:12:21
00031 suncat0256 pw.x -in pw.inp   Done                     01/16/2018 16:12:21