     Program PWSCF v.5.1rc2 (svn rev. ) starts on  4Feb2018 at 11:48:42

     Current dimensions of program PWSCF are:
     Max number of different atomic species (ntypx) = 10
     Max number of k-points (npk) =  40000
     Max angular momentum in pseudopotentials (lmaxx) =  3
     Presently stress not available with electric field

     IMPORTANT: XC functional enforced from input :
     Exchange-correlation      = BEEF-VDW ( 1  4 27 13 2)
     Any further DFT definition will be discarded
     Please, verify this is what you really want

     Subspace diagonalization in iterative solution of the eigenvalue problem:
     a serial algorithm will be used

     bravais-lattice index     =            0
     lattice parameter (alat)  =       1.8897  a.u.
     unit-cell volume          =    8507.0471 (a.u.)^3
     number of atoms/cell      =           13
     number of atomic types    =            2
     number of electrons       =       136.00
     number of Kohn-Sham states=           78
     kinetic-energy cutoff     =      36.7493  Ry
     charge density cutoff     =     367.4932  Ry
     convergence threshold     =      1.0E-05
     mixing beta               =       0.3000
     number of iterations used =           10  plain     mixing
     Exchange-correlation      = BEEF-VDW ( 1  4 27 13 2)
     nstep                     =           50

     celldm(1)=   1.889726  celldm(2)=   0.000000  celldm(3)=   0.000000
     celldm(4)=   0.000000  celldm(5)=   0.000000  celldm(6)=   0.000000

     crystal axes: (cart. coord. in units of alat)
               a(1) = (   7.468327   0.000000   0.000000 )
               a(2) = (   3.734164   6.467761   0.000000 )
               a(3) = (   0.000000   0.000000  26.097863 )

     reciprocal axes: (cart. coord. in units 2 pi/alat)
               b(1) = (  0.133899 -0.077307  0.000000 )
               b(2) = (  0.000000  0.154613  0.000000 )
               b(3) = (  0.000000  0.000000  0.038317 )

     PseudoPot. # 1 for La read from file:
     /home/mamunm/src/pseudo/gbrv1.5pbe/La.UPF
     MD5 check sum: 5937b0c7494ba0601a847275249473aa
     Pseudo is Ultrasoft + core correction, Zval = 11.0
     Generated by new atomic code, or converted to UPF format
     Using radial grid of  995 points,  8 beta functions with:
                l(1) =   0
                l(2) =   0
                l(3) =   1
                l(4) =   1
                l(5) =   2
                l(6) =   2
                l(7) =   3
                l(8) =   3
     Q(r) pseudized with  8 coefficients,  rinner =    1.700   1.700   1.700
                                                       1.700   1.700   1.700
                                                       1.700

     PseudoPot. # 2 for C  read from file:
     /home/mamunm/src/pseudo/gbrv1.5pbe/C.UPF
     MD5 check sum: d1aef80898a10debaa0f26306b886e00
     Pseudo is Ultrasoft + core correction, Zval =  4.0
     Generated by new atomic code, or converted to UPF format
     Using radial grid of  721 points,  4 beta functions with:
                l(1) =   0
                l(2) =   0
                l(3) =   1
                l(4) =   1
     Q(r) pseudized with  8 coefficients,  rinner =    1.100   1.100   1.100

     vdW kernel table read from file vdW_kernel_table
     MD5 check sum: 095c7af220d748ca6e76c0b4c6cfb241

     atomic species   valence    mass     pseudopotential
        La1           11.00   138.90547     La( 1.00)
        C1             4.00    12.01100     C ( 1.00)

     No symmetry found

   Cartesian axes

     site n.     atom                  positions (alat units)
         1           La1 tau(   1) = (   1.8670818   1.0779602  10.0000000  )
         2           La1 tau(   2) = (   5.6012453   1.0779602  10.0000000  )
         3           La1 tau(   3) = (   3.7341635   4.3118406  10.0000000  )
         4           La1 tau(   4) = (   7.4683270   4.3118406  10.0000000  )
         5           La1 tau(   5) = (   7.4683270   2.1559203  13.0489317  )
         6           La1 tau(   6) = (   3.7341635   2.1559203  13.0489317  )
         7           La1 tau(   7) = (   9.3354088   5.3898008  13.0489317  )
         8           La1 tau(   8) = (   5.6012453   5.3898008  13.0489317  )
         9           La1 tau(   9) = (   0.0000000   0.0000000  16.0978635  )
        10           La1 tau(  10) = (   3.7341635   0.0000000  16.0978635  )
        11           La1 tau(  11) = (   1.8670818   3.2338805  16.0978635  )
        12           La1 tau(  12) = (   5.6012453   3.2338805  16.0978635  )
        13           C1  tau(  13) = (   1.8670818   1.0779602  17.9373635  )

     number of k points=    20  Fermi-Dirac smearing, width (Ry)=  0.0110
                       cart. coord. in units 2pi/alat
        k(    1) = (   0.0000000   0.0000000   0.0000000), wk =   0.0555556
        k(    2) = (   0.0000000   0.0257688   0.0000000), wk =   0.1111111
        k(    3) = (   0.0000000   0.0515377   0.0000000), wk =   0.1111111
        k(    4) = (   0.0000000  -0.0773065   0.0000000), wk =   0.0555556
        k(    5) = (   0.0223165  -0.0128844   0.0000000), wk =   0.1111111
        k(    6) = (   0.0223165   0.0128844   0.0000000), wk =   0.1111111
        k(    7) = (   0.0223165   0.0386533   0.0000000), wk =   0.1111111
        k(    8) = (   0.0223165  -0.0901909   0.0000000), wk =   0.1111111
        k(    9) = (   0.0223165  -0.0644221   0.0000000), wk =   0.1111111
        k(   10) = (   0.0223165  -0.0386533   0.0000000), wk =   0.1111111
        k(   11) = (   0.0446329  -0.0257688   0.0000000), wk =   0.1111111
        k(   12) = (   0.0446329   0.0000000   0.0000000), wk =   0.1111111
        k(   13) = (   0.0446329   0.0257688   0.0000000), wk =   0.1111111
        k(   14) = (   0.0446329  -0.1030753   0.0000000), wk =   0.1111111
        k(   15) = (   0.0446329  -0.0773065   0.0000000), wk =   0.1111111
        k(   16) = (   0.0446329  -0.0515377   0.0000000), wk =   0.1111111
        k(   17) = (  -0.0669494   0.0386533   0.0000000), wk =   0.0555556
        k(   18) = (  -0.0669494   0.0644221   0.0000000), wk =   0.1111111
        k(   19) = (  -0.0669494   0.0901909   0.0000000), wk =   0.1111111
        k(   20) = (  -0.0669494  -0.0386533   0.0000000), wk =   0.0555556

     Largest allocated arrays     est. size (Mb)     dimensions
     Largest temporary arrays     est. size (Mb)     dimensions

     Initial potential from superposition of free atoms
     Check: negative starting charge=   -0.831111

     starting charge  135.61514, renormalised to  136.00000

     negative rho (up, down):  8.335E-01 0.000E+00

     *
     * You are using vdW-DF for exchange-correlation in this calculation.
     * Please cite the following three references that made this development
     * possible:
     *
     *   M. Dion, H. Rydberg, E. Schroder, D. C. Langreth, and
     *   B. I. Lundqvist, Phys. Rev. Lett. 92, 246401 (2004).
     *
     *   T. Thonhauser, V. R. Cooper, S. Li, A. Puzder, P. Hyldgaard, and
     *   D. C. Langreth, Phys. Rev. B 76, 125112 (2007).
     *
     *   G. Roman-Perez and J. M. Soler, Phys. Rev. Lett. 103, 096102 (2009).
     *
     *
     * If you are using vdW-DF2, please also cite:
     *
     *   K. Lee, E. D. Murray, L. Kong, B. I. Lundqvist, and
     *   D. C. Langreth, Phys. Rev. B 82, 081101(R) (2010).
     *
     *
     * If you are calculating the stress with vdW-DF, please also cite:
     *
     *   R. Sabatini, E. Kucukbenli, B. Kolb, T. Thonhauser, and
     *   S. de Gironcoli, J. Phys.: Condens. Matter 24, 424209 (2012).
     *

     Carrying out vdW-DF run using the following parameters:

     Nqs =      20    Nr_points =    1024   r_max =   100.000
     q_mesh =
               0.00001000     0.04494208     0.09755937     0.15916263
               0.23128650     0.31572767     0.41458969     0.53033537
               0.66584808     0.82450364     1.01025438     1.22772762
               1.48234092     1.78043706     2.12944203     2.53805004
               3.01644009     3.57652955     4.23227104     5.00000000

     Gradients computed in reciprocal space

     Adding external electric field

     Computed dipole along edir(3) :
        Dipole               -0.1045 Ry au,         -0.2656 Debye
        Dipole field         -0.0002 Ry au

        Potential amp.        0.0148 Ry
        Total length         48.0849 bohr

     Starting wfc are  244 randomized atomic wfcs

     Self-consistent Calculation

     iteration #  1     ecut=    36.75 Ry     beta=0.30
     Davidson diagonalization with overlap
     ethr =  1.00E-02,  avg # of iterations =  2.0

[...]

     total energy              =   -1257.03688131 Ry
     Harris-Foulkes estimate   =   -1260.22416056 Ry
     estimated scf accuracy    <       6.78384310 Ry

[...]

     iteration # 12     ecut=    36.75 Ry     beta=0.30
     Davidson diagonalization with overlap
     c_bands:  1 eigenvalues not converged
     ethr =  3.07E-05,  avg # of iterations =  3.5

[...]

     End of self-consistent calculation

          k = 0.0000 0.0000 0.0000 ( 31997 PWs)   bands (ev):

   -31.9035 -31.8687 -31.7442 -31.7321 -31.7316 -31.5995 -31.5049 -31.5048
   -31.4229 -31.3234 -31.2860 -31.2857 -15.9622 -15.9620 -15.9456 -15.8744
   -15.8744 -15.8137 -15.7616 -15.7114 -15.7040 -15.7039 -15.5161 -15.3303
   -15.2890 -15.2887 -15.1989 -15.1313 -15.1311 -15.1250 -15.1024 -15.1023
   -15.0027 -15.0027 -14.9502 -14.8738 -14.8738 -14.8298 -14.7813 -14.7811
   -14.7411 -14.7218 -14.7217 -14.6801 -14.6613 -14.6612 -14.4671 -14.4671
    -6.3827  -1.2670  -0.5116  -0.1992  -0.1992  -0.1872  -0.1541   0.1190
     0.1191   0.1313   0.2708   0.2709   0.2796   0.4333   0.4333   0.4448
     1.0404   1.0405   1.1490   1.5915   1.5916   1.6874   2.0466   2.1429
     2.1987   2.1987   2.3842   2.5075   2.6676   2.6928

[...]

          k =-0.0669 0.0387 0.0000 ( 31970 PWs)   bands (ev):

[...]

     the Fermi energy is     1.4815 ev

!    total energy              =   -1259.53395066 Ry
     Harris-Foulkes estimate   =   -1259.53391566 Ry
     estimated scf accuracy    <       0.00000741 Ry

     The total energy is the sum of the following terms:

     one-electron contribution =   -4739.02116277 Ry
     hartree contribution      =    2381.03166422 Ry
     xc contribution           =    -611.90255812 Ry
     ewald contribution        =    1710.48716766 Ry
     electric field correction =       0.00067058 Ry
     smearing contrib. (-TS)   =      -0.12973223 Ry

     convergence has been achieved in  20 iterations

 BEEF-vdW xc energy contributions
           1 :   -542.127305788329
           2 :    498.753466445150
           3 :   -421.989642844848
           4 :    328.152815311814
           5 :   -234.640883091903
           6 :    155.285694889369
           7 :   -97.7059712001710
           8 :    62.9636954359181
           9 :   -47.0298253173484
          10 :    43.1687950094167
          11 :   -44.3379354052042
          12 :    44.9252653851727
          13 :   -41.5682113936402
          14 :    33.1959244782886
          15 :   -20.6372301039876
          16 :    6.05379709534031
          17 :    7.72079410614958
          18 :   -17.9445393010174
          19 :    22.7538420310121
          20 :   -21.7641898518385
          21 :    16.2371122529365
          22 :   -8.68418839808055
          23 :    1.99472312556418
          24 :    1.59723125398227
          25 :   -1.28498261475124
          26 :   -2.13606158603261
          27 :    6.75950728979842
          28 :   -10.4803388876405
          29 :    11.8922742561469
          30 :   -10.7749990295530
          31 :   -46.1497549920946
          32 :   -33.1332535021855

     Forces acting on atoms (Ry/au):

     negative rho (up, down):  5.832E-01 0.000E+00
     atom    1 type  1   force =     0.00000752   -0.00002523    0.00396157
     atom    2 type  1   force =    -0.00001389   -0.00187631    0.00349536
     atom    3 type  1   force =    -0.00161701    0.00094986    0.00351657
     atom    4 type  1   force =     0.00161385    0.00095950    0.00347156
     atom    5 type  1   force =    -0.00286283    0.00167179   -0.00486439
     atom    6 type  1   force =     0.00285870    0.00165741   -0.00485273
     atom    7 type  1   force =     0.00000777   -0.00001471   -0.00717249
     atom    8 type  1   force =    -0.00000221   -0.00330699   -0.00486683
     atom    9 type  1   force =     0.04163265    0.02402744    0.03790056
     atom   10 type  1   force =    -0.04163841    0.02401462    0.03789917
     atom   11 type  1   force =     0.00000097   -0.04806055    0.03789334
     atom   12 type  1   force =     0.00001227    0.00000552    0.00671288
     atom   13 type  2   force =     0.00000063   -0.00000235   -0.11309456

     Total force =     0.155161     Total SCF correction =     0.002363

     entering subroutine stress ...

     negative rho (up, down):  5.832E-01 0.000E+00
          total   stress  (Ry/bohr**3)                   (kbar)     P=   -5.25
  -0.00002770   0.00000002   0.00000001         -4.07      0.00      0.00
   0.00000002  -0.00002771   0.00000000          0.00     -4.08      0.00
   0.00000001   0.00000000  -0.00005171          0.00      0.00     -7.61

     BFGS Geometry Optimization

     number of scf cycles    =   1
     number of bfgs steps    =   0

     energy   new            =   -1259.5339506613 Ry

     new trust radius        =       0.1130945650 bohr
     new conv_thr            =       0.0000099958 Ry

ATOMIC_POSITIONS (crystal)
La1      0.166666667   0.166666667   0.383173129    0   0   0
La1      0.666666667   0.166666667   0.383173129    0   0   0
La1      0.166666667   0.666666667   0.383173129    0   0   0
La1      0.666666667   0.666666667   0.383173129    0   0   0
La1      0.833333333   0.333333333   0.500000000    0   0   0
La1      0.333333333   0.333333333   0.500000000    0   0   0
La1      0.833333333   0.833333333   0.500000000    0   0   0
La1      0.333333333   0.833333333   0.500000000    0   0   0
La1      0.001966997   0.001965869   0.617595367
La1      0.496067251   0.001964820   0.617595339
La1      0.001966170   0.496067797   0.617595221
La1      0.500000644   0.500000452   0.616962986
C1       0.166666807   0.166666475   0.685018389

     Writing output data file calc.save
     Check: negative starting charge=   -0.831111
     NEW-OLD atomic charge density approx. for the potential
     Check: negative starting charge=   -0.832311

[...]

     energy   old            =   -1259.5339506613 Ry
     energy   new            =   -1259.5578417932 Ry

     CASE: energy  _new < energy  _old

     WARNING: bfgs curvature condition failed, Theta= 0.815
     new trust radius        =       0.1696418475 bohr
     new conv_thr            =       0.0000001000 Ry

[...]

     WARNING: bfgs curvature condition failed, Theta= 0.873
     new trust radius        =       0.0392320866 bohr
     new conv_thr            =       0.0000001000 Ry

[...]

     iteration #  3     ecut=    36.75 Ry     beta=0.30
     Davidson diagonalization with overlap
     c_bands:  1 eigenvalues not converged
     ethr =  4.91E-06,  avg # of iterations = 11.2

[...]

     Total force =     0.005224     Total SCF correction =     0.000068

[...]

     number of scf cycles    =  18
     number of bfgs steps    =  17

     energy   old            =   -1259.6881288374 Ry
     energy   new            =   -1259.6883994110 Ry

     CASE: energy  _new < energy  _old

     new trust radius        =       0.0569937313 bohr
     new conv_thr            =       0.0000001000 Ry

ATOMIC_POSITIONS (crystal)
La1      0.166666667   0.166666667   0.383173129    0   0   0
La1      0.666666667   0.166666667   0.383173129    0   0   0
La1      0.166666667   0.666666667   0.383173129    0   0   0
La1      0.666666667   0.666666667   0.383173129    0   0   0
La1      0.833333333   0.333333333   0.500000000    0   0   0
La1      0.333333333   0.333333333   0.500000000    0   0   0
La1      0.833333333   0.833333333   0.500000000    0   0   0
La1      0.333333333   0.833333333   0.500000000    0   0   0
La1     -0.000868878  -0.000876492   0.627416956
La1      0.501745951  -0.000876054   0.627416325
La1     -0.000872355   0.501744927   0.627416203
La1      0.500000793   0.500001726   0.608256478
C1       0.166668022   0.166664452   0.649620319

     Writing output data file calc.save
     Check: negative starting charge=   -0.833340
     NEW-OLD atomic charge density approx. for the potential
     Check: negative starting charge=   -0.832021

[...]

     Self-consistent Calculation

[...]

     total energy              =   -1259.68851129 Ry
     Harris-Foulkes estimate   =   -1259.68851134 Ry
     estimated scf accuracy    <       0.00000026 Ry

     iteration # 12     ecut=    36.75 Ry     beta=0.30
     Davidson diagonalization with overlap
     ethr =  1.91E-10,  avg # of iterations =  8.1

[...]

     negative rho (up, down):  5.718E-01 0.000E+00

     Adding external electric field

     Computed dipole along edir(3) :
        Dipole               -0.1189 Ry au,         -0.3021 Debye
        Dipole field         -0.0002 Ry au

        Potential amp.        0.0169 Ry
        Total length         48.0849 bohr

     End of self-consistent calculation

[...]

          k = 0.0446-0.0515 0.0000 ( 31991 PWs)   bands (ev):

[...]

          k =-0.0669-0.0387 0.0000 ( 31970 PWs)   bands (ev):

   -31.4384 -31.4375 -31.3714 -31.3700 -31.3536 -31.1299 -31.0299 -30.9951
   -30.9795 -30.9692 -30.9461 -30.9105 -15.4209 -15.3981 -15.3872 -15.3458
   -15.2736 -15.2294 -15.2262 -15.1898 -15.1570 -15.0793 -15.0691 -15.0129
   -15.0027 -15.0003 -14.8818 -14.8726 -14.8588 -14.8015 -14.7466 -14.6749
   -14.6713 -14.6395 -14.6375 -14.6105 -14.5949 -14.5919 -14.5817 -14.5484
   -14.4755 -14.4325 -14.4019 -14.3964 -14.3480 -14.3354 -14.2711 -14.2409
    -5.5302  -0.2771   0.1406   0.3204   0.3807   0.6362   0.7210   0.8732
     1.0140   1.0958   1.1491   1.1776   1.2963   1.3778   1.5408   1.5782
     1.6978   1.7376   1.7884   1.8272   2.0014   2.0505   2.0681   2.0897
     2.1462   2.1529   2.3524   2.3982   2.4180   2.4313

     the Fermi energy is     1.8439 ev

!    total energy              =   -1259.68851142 Ry
     Harris-Foulkes estimate   =   -1259.68851145 Ry
     estimated scf accuracy    <       0.00000003 Ry

     The total energy is the sum of the following terms:

     one-electron contribution =   -4725.74147136 Ry
     hartree contribution      =    2376.28529027 Ry
     xc contribution           =    -612.41298900 Ry
     ewald contribution        =    1702.30403231 Ry
     electric field correction =       0.00002087 Ry
     smearing contrib. (-TS)   =      -0.12339452 Ry

     convergence has been achieved in  12 iterations

 BEEF-vdW xc energy contributions
           1 :   -542.622262485606
           2 :    499.301514911226
           3 :   -422.590764327993
           4 :    328.763986179010
           5 :   -235.194939611135
           6 :    155.683352506468
           7 :   -97.8229291364975
           8 :    62.7035803239859
           9 :   -46.3966073201493
          10 :    42.3008405714938
          11 :   -43.4658145908902
          12 :    44.2673856305502
          13 :   -41.2243014383300
          14 :    33.1055088390253
          15 :   -20.6315569157440
          16 :    5.96769580724117
          17 :    7.95112676022654
          18 :   -18.2590047603778
          19 :    23.0293583186751
          20 :   -21.9138515858615
          21 :    16.2792102280096
          22 :   -8.73431882214095
          23 :    2.18657640003994
          24 :    1.20783075313989
          25 :  -0.764895266708436
          26 :   -2.63683099718378
          27 :    7.10336908999341
          28 :   -10.6260098211881
          29 :    11.9118377486890
          30 :   -10.7990606534930
          31 :   -46.1797976219930
          32 :   -33.1741004984183

     Forces acting on atoms (Ry/au):

     negative rho (up, down):  5.718E-01 0.000E+00
     atom    1 type  1   force =    -0.00000051    0.00000007    0.00251164
     atom    2 type  1   force =     0.00000011   -0.00144098    0.00597483
     atom    3 type  1   force =    -0.00124756    0.00072039    0.00597514
     atom    4 type  1   force =     0.00124769    0.00072000    0.00597469
     atom    5 type  1   force =    -0.00398277    0.00230019   -0.00478967
     atom    6 type  1   force =     0.00398317    0.00230033   -0.00478974
     atom    7 type  1   force =    -0.00000038   -0.00000038   -0.00397900
     atom    8 type  1   force =     0.00000036   -0.00459970   -0.00479010
     atom    9 type  1   force =    -0.00029561   -0.00016849   -0.00095501
     atom   10 type  1   force =     0.00029563   -0.00016747   -0.00095414
     atom   11 type  1   force =     0.00000092    0.00033420   -0.00095420
     atom   12 type  1   force =    -0.00000140   -0.00000263    0.00148128
     atom   13 type  2   force =     0.00000034    0.00000448   -0.00070573

     Total force =     0.002402     Total SCF correction =     0.000304
     SCF correction compared to forces is large: reduce conv_thr to get better values

     entering subroutine stress ...

     negative rho (up, down):  5.718E-01 0.000E+00
          total   stress  (Ry/bohr**3)                   (kbar)     P=    0.77
   0.00001615  -0.00000000   0.00000000          2.38     -0.00      0.00
  -0.00000000   0.00001615   0.00000000         -0.00      2.38      0.00
   0.00000000   0.00000000  -0.00001657          0.00      0.00     -2.44

     bfgs converged in  19 scf cycles and  18 bfgs steps
     (criteria: energy <  1.0E+00, force <  1.9E-03)

     End of BFGS Geometry Optimization

     Final energy   =   -1259.6885114242 Ry
Begin final coordinates

ATOMIC_POSITIONS (crystal)
La1      0.166666667   0.166666667   0.383173129    0   0   0
La1      0.666666667   0.166666667   0.383173129    0   0   0
La1      0.166666667   0.666666667   0.383173129    0   0   0
La1      0.666666667   0.666666667   0.383173129    0   0   0
La1      0.833333333   0.333333333   0.500000000    0   0   0
La1      0.333333333   0.333333333   0.500000000    0   0   0
La1      0.833333333   0.833333333   0.500000000    0   0   0
La1      0.333333333   0.833333333   0.500000000    0   0   0
La1     -0.000868878  -0.000876492   0.627416956
La1      0.501745951  -0.000876054   0.627416325
La1     -0.000872355   0.501744927   0.627416203
La1      0.500000793   0.500001726   0.608256478
C1       0.166668022   0.166664452   0.649620319
End final coordinates

     Writing output data file calc.save

     General routines

     Parallel routines

   This run was terminated on:  15:50: 7   4Feb2018

   JOB DONE.