     Program PWSCF v.5.1rc2 (svn rev. 11289) starts on 18Jan2018 at  3:49:34

     Current dimensions of program PWSCF are:
     Max number of different atomic species (ntypx) = 10
     Max number of k-points (npk) =  40000
     Max angular momentum in pseudopotentials (lmaxx) =  3
     Presently stress not available with electric field

     IMPORTANT: XC functional enforced from input :
     Exchange-correlation      = BEEF-VDW ( 1  4 27 13 2)
     Any further DFT definition will be discarded
     Please, verify this is what you really want

     Subspace diagonalization in iterative solution of the eigenvalue problem:
     a serial algorithm will be used

     bravais-lattice index     =            0
     lattice parameter (alat)  =       1.8897  a.u.
     unit-cell volume          =    4204.8134 (a.u.)^3
     number of atoms/cell      =           13
     number of atomic types    =            2
     number of electrons       =       184.00
     number of Kohn-Sham states=          102
     kinetic-energy cutoff     =      36.7493  Ry
     charge density cutoff     =     367.4932  Ry
     convergence threshold     =      1.0E-05
     mixing beta               =       0.3000
     number of iterations used =           10  plain     mixing
     Exchange-correlation      = BEEF-VDW ( 1  4 27 13 2)
     nstep                     =           50

     celldm(1)=   1.889726  celldm(2)=   0.000000  celldm(3)=   0.000000
     celldm(4)=   0.000000  celldm(5)=   0.000000  celldm(6)=   0.000000

     crystal axes: (cart. coord. in units of alat)
               a(1) = (   5.426750   0.000000   0.000000 )
               a(2) = (   2.713375   4.699703   0.000000 )
               a(3) = (   0.000000   0.000000  24.430923 )

     reciprocal axes: (cart. coord. in units 2 pi/alat)
               b(1) = (  0.184272 -0.106390  0.000000 )
               b(2) = (  0.000000  0.212779  0.000000 )
               b(3) = (  0.000000  0.000000  0.040932 )

     PseudoPot. # 1 for Rh read from file:
     /afs/slac.stanford.edu/u/if/mamunm/psp/gbrv1.5pbe/Rh.UPF
     MD5 check sum: 761627e959a2e3a1f56b0b5fe687810e
     Pseudo is Ultrasoft + core correction, Zval = 15.0
     Generated by new atomic code, or converted to UPF format
     Using radial grid of  969 points,  7 beta functions with:
                l(1) =   0
                l(2) =   0
                l(3) =   1
                l(4) =   1
                l(5) =   2
                l(6) =   2
                l(7) =   2
     Q(r) pseudized with  8 coefficients,  rinner =    1.200   1.200   1.200
                                                       1.200   1.200

     PseudoPot. # 2 for C  read from file:
     /afs/slac.stanford.edu/u/if/mamunm/psp/gbrv1.5pbe/C.UPF
     MD5 check sum: d1aef80898a10debaa0f26306b886e00
     Pseudo is Ultrasoft + core correction, Zval =  4.0
     Generated by new atomic code, or converted to UPF format
     Using radial grid of  721 points,  4 beta functions with:
                l(1) =   0
                l(2) =   0
                l(3) =   1
                l(4) =   1
     Q(r) pseudized with  8 coefficients,  rinner =    1.100   1.100   1.100

     vdW kernel table read from file vdW_kernel_table
     MD5 check sum: 095c7af220d748ca6e76c0b4c6cfb241

     atomic species   valence    mass     pseudopotential
        Rh1           15.00   102.90550     Rh( 1.00)
        C1             4.00    12.01100     C ( 1.00)

     No symmetry found

   Cartesian axes

     site n.     atom                  positions (alat units)
         1           Rh1 tau(   1) = (   1.3566875   0.7832839  10.0000000  )
         2           Rh1 tau(   2) = (   4.0700625   0.7832839  10.0000000  )
         3           Rh1 tau(   3) = (   2.7133750   3.1331356  10.0000000  )
         4           Rh1 tau(   4) = (   5.4267500   3.1331356  10.0000000  )
         5           Rh1 tau(   5) = (   5.4267500   1.5665678  12.2154614  )
         6           Rh1 tau(   6) = (   2.7133750   1.5665678  12.2154614  )
         7           Rh1 tau(   7) = (   6.7834375   3.9164194  12.2154614  )
         8           Rh1 tau(   8) = (   4.0700625   3.9164194  12.2154614  )
         9           Rh1 tau(   9) = (   0.0000000   0.0000000  14.4309228  )
        10           Rh1 tau(  10) = (   2.7133750   0.0000000  14.4309228  )
        11           Rh1 tau(  11) = (   1.3566875   2.3498517  14.4309228  )
        12           Rh1 tau(  12) = (   4.0700625   2.3498517  14.4309228  )
        13           C1  tau(  13) = (   0.0000000   0.0000000  16.6109228  )

     number of k points=    20  Fermi-Dirac smearing, width (Ry)=  0.0110
                       cart. coord. in units 2pi/alat
        k(    1) = (   0.0000000   0.0000000   0.0000000), wk =   0.0555556
        k(    2) = (   0.0000000   0.0354632   0.0000000), wk =   0.1111111
        k(    3) = (   0.0000000   0.0709265   0.0000000), wk =   0.1111111
        k(    4) = (   0.0000000  -0.1063897   0.0000000), wk =   0.0555556
        k(    5) = (   0.0307121  -0.0177316   0.0000000), wk =   0.1111111
        k(    6) = (   0.0307121   0.0177316   0.0000000), wk =   0.1111111
        k(    7) = (   0.0307121   0.0531948   0.0000000), wk =   0.1111111
        k(    8) = (   0.0307121  -0.1241213   0.0000000), wk =   0.1111111
        k(    9) = (   0.0307121  -0.0886581   0.0000000), wk =   0.1111111
        k(   10) = (   0.0307121  -0.0531948   0.0000000), wk =   0.1111111
        k(   11) = (   0.0614241  -0.0354632   0.0000000), wk =   0.1111111
        k(   12) = (   0.0614241   0.0000000   0.0000000), wk =   0.1111111
        k(   13) = (   0.0614241   0.0354632   0.0000000), wk =   0.1111111
        k(   14) = (   0.0614241  -0.1418529   0.0000000), wk =   0.1111111
        k(   15) = (   0.0614241  -0.1063897   0.0000000), wk =   0.1111111
        k(   16) = (   0.0614241  -0.0709265   0.0000000), wk =   0.1111111
        k(   17) = (  -0.0921362   0.0531948   0.0000000), wk =   0.0555556
        k(   18) = (  -0.0921362   0.0886581   0.0000000), wk =   0.1111111
        k(   19) = (  -0.0921362   0.1241213   0.0000000), wk =   0.1111111
        k(   20) = (  -0.0921362  -0.0531948   0.0000000), wk =   0.0555556

     Largest allocated arrays     est. size (Mb)     dimensions
     Largest temporary arrays     est. size (Mb)     dimensions

     Initial potential from superposition of free atoms
     Check: negative starting charge=   -0.652782

     starting charge  177.99878, renormalised to  184.00000

     negative rho (up, down):  6.748E-01 0.000E+00

     *
     * You are using vdW-DF for exchange-correlation in this calculation.
     * Please cite the following three references that made this development
     * possible:
     *
     *   M. Dion, H. Rydberg, E. Schroder, D. C. Langreth, and
     *   B. I. Lundqvist, Phys. Rev. Lett. 92, 246401 (2004).
     *
     *   T. Thonhauser, V. R. Cooper, S. Li, A. Puzder, P. Hyldgaard, and
     *   D. C. Langreth, Phys. Rev. B 76, 125112 (2007).
     *
     *   G. Roman-Perez and J. M. Soler, Phys. Rev. Lett. 103, 096102 (2009).
     *
     *
     * If you are using vdW-DF2, please also cite:
     *
     *   K. Lee, E. D. Murray, L. Kong, B. I. Lundqvist, and
     *   D. C. Langreth, Phys. Rev. B 82, 081101(R) (2010).
     *
     *
     * If you are calculating the stress with vdW-DF, please also cite:
     *
     *   R. Sabatini, E. Kucukbenli, B. Kolb, T. Thonhauser, and
     *   S. de Gironcoli, J. Phys.: Condens. Matter 24, 424209 (2012).
     *

     Carrying out vdW-DF run using the following parameters:

     Nqs =      20    Nr_points =    1024   r_max =   100.000
     q_mesh =
               0.00001000     0.04494208     0.09755937     0.15916263
               0.23128650     0.31572767     0.41458969     0.53033537
               0.66584808     0.82450364     1.01025438     1.22772762
               1.48234092     1.78043706     2.12944203     2.53805004
               3.01644009     3.57652955     4.23227104     5.00000000

     Gradients computed in reciprocal space

     Adding external electric field

     Computed dipole along edir(3) :
        Dipole               -1.1198 Ry au,         -2.8463 Debye
        Dipole field         -0.0033 Ry au

        Potential amp.        0.3013 Ry
        Total length         45.0136 bohr

     Starting wfc are  148 randomized atomic wfcs

     Self-consistent Calculation

     iteration #  1     ecut=    36.75 Ry     beta=0.30
     Davidson diagonalization with overlap
     ethr =  1.00E-02,  avg # of iterations =  2.0

[...]

     total energy              =   -2052.46283279 Ry
     Harris-Foulkes estimate   =   -2078.90331906 Ry
     estimated scf accuracy    <      54.80575795 Ry

[...]

     End of self-consistent calculation

          k = 0.0000 0.0000 0.0000 ( 15785 PWs)   bands (ev):

   -45.5077 -45.4975 -45.4966 -45.4173 -45.3747 -45.3744 -45.3055 -45.2263
   -45.2188 -45.2178 -45.1114 -45.0921 -45.0910 -45.0904 -45.0254 -45.0248
   -45.0083 -44.9714 -44.9711 -44.8223 -44.8221 -44.7093 -44.6902 -44.6897
   -44.6845 -44.6815 -44.6342 -44.6337 -44.6241 -44.6237 -44.6072 -44.5939
   -44.5930 -44.5764 -44.5763 -44.5406  -7.3765  -5.1208  -3.9158  -3.9155
    -3.9030  -3.8635  -3.7277  -3.6101  -3.6097  -3.5938  -3.4228  -3.4226
    -3.3782  -3.0907  -3.0906  -3.0686  -2.0910  -2.0909  -1.9305  -1.5502
    -1.5234  -1.5233  -1.3296  -1.2016  -1.2015  -0.9075  -0.9075  -0.8634
    -0.8212  -0.8208  -0.7883  -0.6737  -0.6736  -0.4095  -0.0093  -0.0091
     0.3751   0.3753   0.6772   0.6998   0.7000   0.7108   0.7111   0.7848
     1.0374   1.2336   1.2337   1.6256   1.6900   1.6904   1.7978   1.8067
     1.8069   1.9025   1.9026   2.1165   2.1168   2.1734   2.1834   2.1840
     2.4254   2.4259   2.5171   2.5599   2.5603   2.5655

[...]

          k =-0.0921 0.0532 0.0000 ( 15852 PWs)   bands (ev):

[...]

     the Fermi energy is     1.5527 ev

!    total energy              =   -2077.63859786 Ry
     Harris-Foulkes estimate   =   -2077.63860491 Ry
     estimated scf accuracy    <       0.00000800 Ry

     The total energy is the sum of the following terms:

     one-electron contribution =  -19294.41280736 Ry
     hartree contribution      =    9688.89197343 Ry
     xc contribution           =    -375.30530046 Ry
     ewald contribution        =    7903.31297511 Ry
     electric field correction =       0.00013245 Ry
     smearing contrib. (-TS)   =      -0.12557103 Ry

     convergence has been achieved in  21 iterations

 BEEF-vdW xc energy contributions
           1 :   -326.775115803664
           2 :    300.021687177344
           3 :   -253.793640360914
           4 :    199.610339693419
           5 :   -149.033132063219
           6 :    110.112515589520
           7 :   -85.5793102030300
           8 :    73.1679338660988
           9 :   -67.6366003726588
          10 :    63.4571998698221
          11 :   -57.0178174522275
          12 :    47.5427402598092
          13 :   -36.6056049013665
          14 :    26.7379822429696
          15 :   -19.9285955962280
          16 :    16.6932265758873
          17 :   -16.0264125319889
          18 :    16.1059889274644
[...]

[...]

   This run was terminated on:   4:49: 8  18Jan2018

[...]

   This run was terminated on:   5: 4:15  18Jan2018

[...]

     Program PWSCF v.5.1rc2 (svn rev. 11289) starts on 18Jan2018 at  5: 4:21

[...]

     Program PWSCF v.5.1rc2 (svn rev. 11289) starts on 18Jan2018 at  5:49: 1

[...]

     Total force =     0.029990     Total SCF correction =     0.002715

[...]

   This run was terminated on:   6: 4: 0  18Jan2018

[...]

     Program PWSCF v.5.1rc2 (svn rev. 11289) starts on 18Jan2018 at  6: 4: 6

[...]

   This run was terminated on:   6:19:34  18Jan2018

[...]

     Program PWSCF v.5.1rc2 (svn rev. 11289) starts on 18Jan2018 at  6:19:40

     Current dimensions of program PWSCF are:
     Max number of different atomic species (ntypx) = 10
     Max number of k-points (npk) =  40000
     Max angular momentum in pseudopotentials (lmaxx) =  3
     Presently stress not available with electric field

     IMPORTANT: XC functional enforced from input :
     Exchange-correlation      = BEEF-VDW ( 1  4 27 13 2)
     Any further DFT definition will be discarded
     Please, verify this is what you really want

     Subspace diagonalization in iterative solution of the eigenvalue problem:
     a serial algorithm will be used

     bravais-lattice index     =            0
     lattice parameter (alat)  =       1.8897  a.u.
     unit-cell volume          =    4204.8134 (a.u.)^3
     number of atoms/cell      =           13
     number of atomic types    =            2
     number of electrons       =       184.00
     number of Kohn-Sham states=          102
     kinetic-energy cutoff     =      36.7493  Ry
     charge density cutoff     =     367.4932  Ry
     convergence threshold     =      1.0E-05
     mixing beta               =       0.3000
     number of iterations used =           10  plain     mixing
     Exchange-correlation      = BEEF-VDW ( 1  4 27 13 2)
     nstep                     =           50

     celldm(1)=   1.889726  celldm(2)=   0.000000  celldm(3)=   0.000000
     celldm(4)=   0.000000  celldm(5)=   0.000000  celldm(6)=   0.000000

     crystal axes: (cart. coord. in units of alat)
               a(1) = (   5.426750   0.000000   0.000000 )
               a(2) = (   2.713375   4.699703   0.000000 )
               a(3) = (   0.000000   0.000000  24.430923 )

     reciprocal axes: (cart. coord. in units 2 pi/alat)
               b(1) = (  0.184272 -0.106390  0.000000 )
               b(2) = (  0.000000  0.212779  0.000000 )
               b(3) = (  0.000000  0.000000  0.040932 )

     PseudoPot. # 1 for Rh read from file:
     /afs/slac.stanford.edu/u/if/mamunm/psp/gbrv1.5pbe/Rh.UPF
     MD5 check sum: 761627e959a2e3a1f56b0b5fe687810e
     Pseudo is Ultrasoft + core correction, Zval = 15.0
     Generated by new atomic code, or converted to UPF format
     Using radial grid of  969 points,  7 beta functions with:
                l(1) =   0
                l(2) =   0
                l(3) =   1
                l(4) =   1
                l(5) =   2
                l(6) =   2
                l(7) =   2
     Q(r) pseudized with  8 coefficients,  rinner =    1.200   1.200   1.200
                                                       1.200   1.200

     PseudoPot. # 2 for C  read from file:
     /afs/slac.stanford.edu/u/if/mamunm/psp/gbrv1.5pbe/C.UPF
     MD5 check sum: d1aef80898a10debaa0f26306b886e00
     Pseudo is Ultrasoft + core correction, Zval =  4.0
     Generated by new atomic code, or converted to UPF format
     Using radial grid of  721 points,  4 beta functions with:
                l(1) =   0
                l(2) =   0
                l(3) =   1
                l(4) =   1
     Q(r) pseudized with  8 coefficients,  rinner =    1.100   1.100   1.100

     vdW kernel table read from file vdW_kernel_table
     MD5 check sum: 095c7af220d748ca6e76c0b4c6cfb241

     atomic species   valence    mass     pseudopotential
        Rh1           15.00   102.90550     Rh( 1.00)
        C1             4.00    12.01100     C ( 1.00)

     No symmetry found

   Cartesian axes

     site n.     atom                  positions (alat units)
         1           Rh1 tau(   1) = (   1.3566875   0.7832839  10.0000000  )
         2           Rh1 tau(   2) = (   4.0700625   0.7832839  10.0000000  )
         3           Rh1 tau(   3) = (   2.7133750   3.1331356  10.0000000  )
         4           Rh1 tau(   4) = (   5.4267500   3.1331356  10.0000000  )
         5           Rh1 tau(   5) = (   5.4267500   1.5665678  12.2154614  )
         6           Rh1 tau(   6) = (   2.7133750   1.5665678  12.2154614  )
         7           Rh1 tau(   7) = (   6.7834375   3.9164194  12.2154614  )
         8           Rh1 tau(   8) = (   4.0700625   3.9164194  12.2154614  )
         9           Rh1 tau(   9) = (   8.1400504   4.6996671  14.7937968  )
        10           Rh1 tau(  10) = (   2.7134781   0.0089561  14.3852574  )
        11           Rh1 tau(  11) = (   1.3645678   2.3454189  14.3853107  )
        12           Rh1 tau(  12) = (   4.0623085   2.3453305  14.3854589  )
        13           C1  tau(  13) = (   8.1401167   4.6996964  16.4592844  )

     number of k points=    20  Fermi-Dirac smearing, width (Ry)=  0.0110
                       cart. coord. in units 2pi/alat
        k(    1) = (   0.0000000   0.0000000   0.0000000), wk =   0.0555556
        k(    2) = (   0.0000000   0.0354632   0.0000000), wk =   0.1111111
        k(    3) = (   0.0000000   0.0709265   0.0000000), wk =   0.1111111
        k(    4) = (   0.0000000  -0.1063897   0.0000000), wk =   0.0555556
        k(    5) = (   0.0307121  -0.0177316   0.0000000), wk =   0.1111111
        k(    6) = (   0.0307121   0.0177316   0.0000000), wk =   0.1111111
        k(    7) = (   0.0307121   0.0531948   0.0000000), wk =   0.1111111
        k(    8) = (   0.0307121  -0.1241213   0.0000000), wk =   0.1111111
        k(    9) = (   0.0307121  -0.0886581   0.0000000), wk =   0.1111111
        k(   10) = (   0.0307121  -0.0531948   0.0000000), wk =   0.1111111
        k(   11) = (   0.0614241  -0.0354632   0.0000000), wk =   0.1111111
        k(   12) = (   0.0614241   0.0000000   0.0000000), wk =   0.1111111
        k(   13) = (   0.0614241   0.0354632   0.0000000), wk =   0.1111111
        k(   14) = (   0.0614241  -0.1418529   0.0000000), wk =   0.1111111
        k(   15) = (   0.0614241  -0.1063897   0.0000000), wk =   0.1111111
        k(   16) = (   0.0614241  -0.0709265   0.0000000), wk =   0.1111111
        k(   17) = (  -0.0921362   0.0531948   0.0000000), wk =   0.0555556
        k(   18) = (  -0.0921362   0.0886581   0.0000000), wk =   0.1111111
        k(   19) = (  -0.0921362   0.1241213   0.0000000), wk =   0.1111111
        k(   20) = (  -0.0921362  -0.0531948   0.0000000), wk =   0.0555556

     Largest allocated arrays     est. size (Mb)     dimensions
     Largest temporary arrays     est. size (Mb)     dimensions

     Initial potential from superposition of free atoms
     Check: negative starting charge=   -0.660430

     starting charge  177.99878, renormalised to  184.00000

[...]

     *
     * You are using vdW-DF for exchange-correlation in this calculation.
     * Please cite the following three references that made this development
     * possible:
     *
     *   M. Dion, H. Rydberg, E. Schroder, D. C. Langreth, and
     *   B. I. Lundqvist, Phys. Rev. Lett. 92, 246401 (2004).
     *
     *   T. Thonhauser, V. R. Cooper, S. Li, A. Puzder, P. Hyldgaard, and
     *   D. C. Langreth, Phys. Rev. B 76, 125112 (2007).
     *
     *   G. Roman-Perez and J. M. Soler, Phys. Rev. Lett. 103, 096102 (2009).
     *
     *
     * If you are using vdW-DF2, please also cite:
     *
     *   K. Lee, E. D. Murray, L. Kong, B. I. Lundqvist, and
     *   D. C. Langreth, Phys. Rev. B 82, 081101(R) (2010).
     *
     *
     * If you are calculating the stress with vdW-DF, please also cite:
     *
     *   R. Sabatini, E. Kucukbenli, B. Kolb, T. Thonhauser, and
     *   S. de Gironcoli, J. Phys.: Condens. Matter 24, 424209 (2012).
     *

     Carrying out vdW-DF run using the following parameters:

     Nqs =      20    Nr_points =    1024   r_max =   100.000
     q_mesh =
               0.00001000     0.04494208     0.09755937     0.15916263
               0.23128650     0.31572767     0.41458969     0.53033537
               0.66584808     0.82450364     1.01025438     1.22772762
               1.48234092     1.78043706     2.12944203     2.53805004
               3.01644009     3.57652955     4.23227104     5.00000000

     Gradients computed in reciprocal space

[...]

     Starting wfc are  148 randomized atomic wfcs

     Self-consistent Calculation

[...]

     total energy              =   -2077.78220368 Ry
     Harris-Foulkes estimate   =   -2077.78220606 Ry
     estimated scf accuracy    <       0.00003250 Ry

     iteration # 21     ecut=    36.75 Ry     beta=0.30
     Davidson diagonalization with overlap
     ethr =  1.77E-08,  avg # of iterations =  2.2

[...]

     negative rho (up, down):  6.952E-01 0.000E+00

     Adding external electric field

     Computed dipole along edir(3) :
        Dipole               -0.1503 Ry au,         -0.3820 Debye
        Dipole field         -0.0004 Ry au

        Potential amp.        0.0404 Ry
        Total length         45.0136 bohr

     End of self-consistent calculation

[...]

          k = 0.0614-0.0709 0.0000 ( 15838 PWs)   bands (ev):

[...]

          k =-0.0921-0.0532 0.0000 ( 15852 PWs)   bands (ev):

   -46.4718 -45.5363 -45.5125 -45.3082 -45.2518 -45.2284 -45.1700 -45.1269
   -45.1214 -45.0890 -45.0523 -45.0509 -44.9803 -44.9426 -44.8941 -44.8652
   -44.8366 -44.8184 -44.7433 -44.7267 -44.7167 -44.6974 -44.6887 -44.6777
   -44.6773 -44.6297 -44.5546 -44.5457 -44.5440 -44.5377 -44.5360 -44.5196
   -44.5155 -44.5151 -44.5119 -44.4797  -8.4296  -3.5942  -3.5130  -3.1550
    -3.0981  -2.9751  -2.9279  -2.8629  -2.8337  -2.6441  -2.5625  -2.5457
    -2.4867  -2.4099  -2.3286  -2.1507  -2.1275  -1.9954  -1.8647  -1.8351
    -1.6567  -1.5759  -1.5635  -1.5004  -1.4639  -1.2565  -1.1223  -1.0292
    -0.9270  -0.6937  -0.6349  -0.5352  -0.5177  -0.4513  -0.4427  -0.3989
    -0.3458  -0.3106  -0.3031  -0.2453  -0.2079  -0.0526   0.1298   0.2429
     0.2902   0.3483   0.4934   0.5579   0.6277   0.6935   0.8204   0.8425
     0.9130   1.0074   1.1019   1.3679   1.3942   1.5232   1.6053   1.7528
     1.9034   1.9581   2.1329   2.2170   2.4077   3.2539

     the Fermi energy is     1.6559 ev

!    total energy              =   -2077.78219734 Ry
     Harris-Foulkes estimate   =   -2077.78219688 Ry
     estimated scf accuracy    <       0.00000938 Ry

     The total energy is the sum of the following terms:

     one-electron contribution =  -19180.29779237 Ry
     hartree contribution      =    9631.90947419 Ry
     xc contribution           =    -375.58817267 Ry
     ewald contribution        =    7846.31468865 Ry
     electric field correction =       0.00006751 Ry
     smearing contrib. (-TS)   =      -0.12046267 Ry

     convergence has been achieved in  21 iterations

 BEEF-vdW xc energy contributions
           1 :   -327.047659503660
           2 :    300.312257597067
           3 :   -254.112186007944
           4 :    199.946176050124
           5 :   -149.354889063932
           6 :    110.380786439919
           7 :   -85.7588597254136
           8 :    73.2357670120995
           9 :   -67.5890500261073
          10 :    63.3169764798603
          11 :   -56.8354115879450
          12 :    47.3840494957711
          13 :   -36.5267101519538
          14 :    26.7600821439354
          15 :   -20.0270988360291
          16 :    16.8078069524956
          17 :   -16.0904775135594
          18 :    16.0817609222970
          19 :   -15.1886573335664
          20 :    12.7496149159603
          21 :   -9.18985337200814
          22 :    5.60803650472957
          23 :   -3.08996871003478
          24 :    2.13301520108865
          25 :   -2.45127531524662
          26 :    3.20745366400530
          27 :   -3.50284445992480
          28 :    2.84876219140739
          29 :   -1.37589279712296
          30 :  -0.305956821906705
          31 :   -32.4242204718353
          32 :   -24.3166701255068

     Forces acting on atoms (Ry/au):

     negative rho (up, down):  6.952E-01 0.000E+00
     atom    1 type  1   force =    -0.00052083   -0.00031555    0.00817807
     atom    2 type  1   force =     0.00051700   -0.00031827    0.00806164
     atom    3 type  1   force =    -0.00000571    0.00059776    0.00806111
     atom    4 type  1   force =     0.00000842    0.00000661   -0.00201513
     atom    5 type  1   force =    -0.00000733   -0.01254673   -0.00435081
     atom    6 type  1   force =     0.00000214   -0.00001316   -0.01118676
     atom    7 type  1   force =     0.01093975    0.00632116   -0.00435716
     atom    8 type  1   force =    -0.01091391    0.00629535   -0.00433365
     atom    9 type  1   force =     0.00004683    0.00000204    0.00068278
     atom   10 type  1   force =    -0.00004114   -0.00169539   -0.00023059
     atom   11 type  1   force =    -0.00150845    0.00081337   -0.00017374
     atom   12 type  1   force =     0.00147885    0.00085785   -0.00025003
     atom   13 type  2   force =     0.00000437   -0.00000504    0.00191428

     Total force =     0.029541     Total SCF correction =     0.022310
     SCF correction compared to forces is large: reduce conv_thr to get better values

     entering subroutine stress ...

     negative rho (up, down):  6.952E-01 0.000E+00
          total   stress  (Ry/bohr**3)                   (kbar)     P=  -31.33
  -0.00022279  -0.00000000   0.00000002        -32.77     -0.00      0.00
  -0.00000000  -0.00022284   0.00000003         -0.00    -32.78      0.00
   0.00000002   0.00000003  -0.00019334          0.00      0.00    -28.44

 !ASE

     Writing output data file calc.save

     General routines

     Parallel routines

   This run was terminated on:   6:34: 9  18Jan2018

   JOB DONE.
Job  /afs/slac/g/suncat/bin/suncat-tsmpirun -x LD_LIBRARY_PATH -wdir /scratch/qe842475_o54l9 pw.x -in pw.inp

TID   HOST_NAME   COMMAND_LINE            STATUS            TERMINATION_TIME
00000 suncat0273 pw.x -in pw.inp   Done                     01/18/2018 06:34:09
00001 suncat0273 pw.x -in pw.inp   Done                     01/18/2018 06:34:09
00002 suncat0273 pw.x -in pw.inp   Done                     01/18/2018 06:34:09
00003 suncat0273 pw.x -in pw.inp   Done                     01/18/2018 06:34:09
00004 suncat0273 pw.x -in pw.inp   Done                     01/18/2018 06:34:09
00005 suncat0273 pw.x -in pw.inp   Done                     01/18/2018 06:34:09
00006 suncat0273 pw.x -in pw.inp   Done                     01/18/2018 06:34:09
00007 suncat0273 pw.x -in pw.inp   Done                     01/18/2018 06:34:09
00008 suncat0268 pw.x -in pw.inp   Done                     01/18/2018 06:34:09
00009 suncat0268 pw.x -in pw.inp   Done                     01/18/2018 06:34:09
00010 suncat0268 pw.x -in pw.inp   Done                     01/18/2018 06:34:09
00011 suncat0268 pw.x -in pw.inp   Done                     01/18/2018 06:34:09
00012 suncat0268 pw.x -in pw.inp   Done                     01/18/2018 06:34:09
00013 suncat0268 pw.x -in pw.inp   Done                     01/18/2018 06:34:09
00014 suncat0268 pw.x -in pw.inp   Done                     01/18/2018 06:34:09
00015 suncat0268 pw.x -in pw.inp   Done                     01/18/2018 06:34:09
00016 suncat0266 pw.x -in pw.inp   Done                     01/18/2018 06:34:09
00017 suncat0266 pw.x -in pw.inp   Done                     01/18/2018 06:34:09
00018 suncat0266 pw.x -in pw.inp   Done                     01/18/2018 06:34:09
00019 suncat0266 pw.x -in pw.inp   Done                     01/18/2018 06:34:09
00020 suncat0266 pw.x -in pw.inp   Done                     01/18/2018 06:34:09
00021 suncat0266 pw.x -in pw.inp   Done                     01/18/2018 06:34:09
00022 suncat0266 pw.x -in pw.inp   Done                     01/18/2018 06:34:09
00023 suncat0266 pw.x -in pw.inp   Done                     01/18/2018 06:34:09
00024 suncat0233 pw.x -in pw.inp   Done                     01/18/2018 06:34:09
00025 suncat0233 pw.x -in pw.inp   Done                     01/18/2018 06:34:09
00026 suncat0233 pw.x -in pw.inp   Done                     01/18/2018 06:34:09
00027 suncat0233 pw.x -in pw.inp   Done                     01/18/2018 06:34:09
00028 suncat0233 pw.x -in pw.inp   Done                     01/18/2018 06:34:09
00029 suncat0233 pw.x -in pw.inp   Done                     01/18/2018 06:34:09
00030 suncat0233 pw.x -in pw.inp   Done                     01/18/2018 06:34:09
00031 suncat0233 pw.x -in pw.inp   Done                     01/18/2018 06:34:09