     Program PWSCF v.5.1rc2 (svn rev. 11289) starts on 19Jan2018 at 23:18:52

     Current dimensions of program PWSCF are:
     Max number of different atomic species (ntypx) = 10
     Max number of k-points (npk) =  40000
     Max angular momentum in pseudopotentials (lmaxx) =  3
     Presently stress not available with electric field

     IMPORTANT: XC functional enforced from input :
     Exchange-correlation      = BEEF-VDW ( 1  4 27 13 2)
     Any further DFT definition will be discarded
     Please, verify this is what you really want

     Subspace diagonalization in iterative solution of the eigenvalue problem:
     a serial algorithm will be used

     bravais-lattice index     =            0
     lattice parameter (alat)  =       1.8897  a.u.
     unit-cell volume          =    4306.9643 (a.u.)^3
     number of atoms/cell      =           13
     number of atomic types    =            2
     number of electrons       =       186.00
     number of Kohn-Sham states=          103
     kinetic-energy cutoff     =      36.7493  Ry
     charge density cutoff     =     367.4932  Ry
     convergence threshold     =      1.0E-05
     mixing beta               =       0.3000
     number of iterations used =           10  plain     mixing
     Exchange-correlation      = BEEF-VDW ( 1  4 27 13 2)
     nstep                     =           50

     celldm(1)=   1.889726  celldm(2)=   0.000000  celldm(3)=   0.000000
     celldm(4)=   0.000000  celldm(5)=   0.000000  celldm(6)=   0.000000

     crystal axes: (cart. coord. in units of alat)
               a(1) = (   5.486772   0.000000   0.000000 )
               a(2) = (   2.743386   4.751684   0.000000 )
               a(3) = (   0.000000   0.000000  24.479931 )

     reciprocal axes: (cart. coord. in units 2 pi/alat)
               b(1) = (  0.182257 -0.105226  0.000000 )
               b(2) = (  0.000000  0.210452  0.000000 )
               b(3) = (  0.000000  0.000000  0.040850 )

     PseudoPot. # 1 for Re read from file:
     /afs/slac.stanford.edu/u/if/mamunm/psp/gbrv1.5pbe/Re.UPF
     MD5 check sum: 85f993410f3e006da9d71c142b4ad953
     Pseudo is Ultrasoft + core correction, Zval = 15.0
     Generated by new atomic code, or converted to UPF format
     Using radial grid of  981 points,  8 beta functions with:
                l(1) =   0
                l(2) =   0
                l(3) =   1
                l(4) =   1
                l(5) =   2
                l(6) =   2
                l(7) =   3
                l(8) =   3
     Q(r) pseudized with  8 coefficients,  rinner =    1.150   1.150   1.150
                                                       1.150   1.150   1.150
                                                       1.150

     PseudoPot. # 2 for S  read from file:
     /afs/slac.stanford.edu/u/if/mamunm/psp/gbrv1.5pbe/S.UPF
     MD5 check sum: 88d86576ff6df21479756cfb9bdac1df
     Pseudo is Ultrasoft + core correction, Zval =  6.0
     Generated by new atomic code, or converted to UPF format
     Using radial grid of  907 points,  6 beta functions with:
                l(1) =   0
                l(2) =   0
                l(3) =   1
                l(4) =   1
                l(5) =   2
                l(6) =   2
     Q(r) pseudized with  8 coefficients,  rinner =    1.300   1.300   1.300
                                                       1.300   1.300

     vdW kernel table read from file vdW_kernel_table
     MD5 check sum: 095c7af220d748ca6e76c0b4c6cfb241

     atomic species   valence    mass     pseudopotential
        Re1           15.00   186.20700     Re( 1.00)
        S1             6.00    32.06000     S ( 1.00)

     No symmetry found

   Cartesian axes

     site n.     atom                  positions (alat units)
         1           Re1 tau(   1) = (   1.3716930   0.7919474  10.0000000  )
         2           Re1 tau(   2) = (   4.1150791   0.7919474  10.0000000  )
         3           Re1 tau(   3) = (   2.7433861   3.1677894  10.0000000  )
         4           Re1 tau(   4) = (   5.4867722   3.1677894  10.0000000  )
         5           Re1 tau(   5) = (   5.4867722   1.5838947  12.2399654  )
         6           Re1 tau(   6) = (   2.7433861   1.5838947  12.2399654  )
         7           Re1 tau(   7) = (   6.8584652   3.9597368  12.2399654  )
         8           Re1 tau(   8) = (   4.1150791   3.9597368  12.2399654  )
         9           Re1 tau(   9) = (   0.0000000   0.0000000  14.4799307  )
        10           Re1 tau(  10) = (   2.7433861   0.0000000  14.4799307  )
        11           Re1 tau(  11) = (   1.3716930   2.3758421  14.4799307  )
        12           Re1 tau(  12) = (   4.1150791   2.3758421  14.4799307  )
        13           S1  tau(  13) = (   2.7433861   1.5838947  17.0399307  )

     number of k points=    20  Fermi-Dirac smearing, width (Ry)=  0.0110
                       cart. coord. in units 2pi/alat
        k(    1) = (   0.0000000   0.0000000   0.0000000), wk =   0.0555556
        k(    2) = (   0.0000000   0.0350753   0.0000000), wk =   0.1111111
        k(    3) = (   0.0000000   0.0701506   0.0000000), wk =   0.1111111
        k(    4) = (   0.0000000  -0.1052259   0.0000000), wk =   0.0555556
        k(    5) = (   0.0303761  -0.0175376   0.0000000), wk =   0.1111111
        k(    6) = (   0.0303761   0.0175376   0.0000000), wk =   0.1111111
        k(    7) = (   0.0303761   0.0526129   0.0000000), wk =   0.1111111
        k(    8) = (   0.0303761  -0.1227635   0.0000000), wk =   0.1111111
        k(    9) = (   0.0303761  -0.0876882   0.0000000), wk =   0.1111111
        k(   10) = (   0.0303761  -0.0526129   0.0000000), wk =   0.1111111
        k(   11) = (   0.0607522  -0.0350753   0.0000000), wk =   0.1111111
        k(   12) = (   0.0607522   0.0000000   0.0000000), wk =   0.1111111
        k(   13) = (   0.0607522   0.0350753   0.0000000), wk =   0.1111111
        k(   14) = (   0.0607522  -0.1403011   0.0000000), wk =   0.1111111
        k(   15) = (   0.0607522  -0.1052259   0.0000000), wk =   0.1111111
        k(   16) = (   0.0607522  -0.0701506   0.0000000), wk =   0.1111111
        k(   17) = (  -0.0911283   0.0526129   0.0000000), wk =   0.0555556
        k(   18) = (  -0.0911283   0.0876882   0.0000000), wk =   0.1111111
        k(   19) = (  -0.0911283   0.1227635   0.0000000), wk =   0.1111111
        k(   20) = (  -0.0911283  -0.0526129   0.0000000), wk =   0.0555556

     Largest allocated arrays     est. size (Mb)     dimensions
     Largest temporary arrays     est. size (Mb)     dimensions

     Initial potential from superposition of free atoms
     Check: negative starting charge=   -1.539558

     starting charge  179.99942, renormalised to  186.00000

     negative rho (up, down):  1.591E+00 0.000E+00

     *
     * You are using vdW-DF for exchange-correlation in this calculation.
     * Please cite the following three references that made this development
     * possible:
     *
     *   M. Dion, H. Rydberg, E. Schroder, D. C. Langreth, and
     *   B. I. Lundqvist, Phys. Rev. Lett. 92, 246401 (2004).
     *
     *   T. Thonhauser, V. R. Cooper, S. Li, A. Puzder, P. Hyldgaard, and
     *   D. C. Langreth, Phys. Rev. B 76, 125112 (2007).
     *
     *   G. Roman-Perez and J. M. Soler, Phys. Rev. Lett. 103, 096102 (2009).
     *
     *
     * If you are using vdW-DF2, please also cite:
     *
     *   K. Lee, E. D. Murray, L. Kong, B. I. Lundqvist, and
     *   D. C. Langreth, Phys. Rev. B 82, 081101(R) (2010).
     *
     *
     * If you are calculating the stress with vdW-DF, please also cite:
     *
     *   R. Sabatini, E. Kucukbenli, B. Kolb, T. Thonhauser, and
     *   S. de Gironcoli, J. Phys.: Condens. Matter 24, 424209 (2012).
     *

     Carrying out vdW-DF run using the following parameters:

     Nqs =      20    Nr_points =    1024   r_max =   100.000
     q_mesh =
               0.00001000     0.04494208     0.09755937     0.15916263
               0.23128650     0.31572767     0.41458969     0.53033537
               0.66584808     0.82450364     1.01025438     1.22772762
               1.48234092     1.78043706     2.12944203     2.53805004
               3.01644009     3.57652955     4.23227104     5.00000000

     Gradients computed in reciprocal space

     Adding external electric field

     Computed dipole along edir(3) :
        Dipole               -1.8140 Ry au,         -4.6106 Debye
        Dipole field         -0.0053 Ry au

        Potential amp.        0.4774 Ry
        Total length         45.1039 bohr

     Starting wfc are  160 randomized atomic wfcs

     Self-consistent Calculation

     iteration #  1     ecut=    36.75 Ry     beta=0.30
     Davidson diagonalization with overlap
     ethr =  1.00E-02,  avg # of iterations =  2.0

[...]

     total energy              =   -2278.68417372 Ry
     Harris-Foulkes estimate   =   -2329.91766749 Ry
     estimated scf accuracy    <     106.30974704 Ry

[...]

     End of self-consistent calculation

          k = 0.0000 0.0000 0.0000 ( 16091 PWs)   bands (ev):

   -77.8089 -77.7293 -77.7206 -77.7203 -77.6982 -77.6716 -77.6688 -77.6669
   -77.6310 -77.6057 -77.6047 -77.5979 -40.0692 -40.0530 -40.0528 -39.9589
   -39.8854 -39.8745 -39.8739 -39.7660 -39.7507 -39.7501 -39.5369 -39.4221
   -39.4209 -39.4195 -39.3877 -39.3873 -39.3802 -39.3043 -39.2996 -39.2995
   -39.1871 -39.1868 -39.1750 -39.0977 -39.0846 -39.0836 -39.0818 -39.0537
   -39.0536 -39.0203 -39.0153 -39.0150 -38.8707 -38.8705 -38.8182 -38.8180
    -8.3512  -6.3753  -4.4230  -3.8778  -3.4886  -3.4823  -3.4822  -3.1888
    -3.1719  -3.1719  -2.4930  -2.4929  -2.4927  -2.3272  -2.3007  -2.3005
    -0.8584  -0.7666  -0.7661   0.1444   0.2918   0.2919   0.4071   0.6220
     0.9718   0.9718   1.1704   1.1708   1.1966   1.4185   1.4186   1.4654
     1.4715   1.4717   1.4925   1.7232   1.7232   2.1900   2.1902   2.5003
     3.1305   3.1308   3.1960   3.4799   3.4902   3.4907   4.0443   4.0443
     4.0600   4.5723   4.5726   4.6007   4.6008   4.9121   5.2176

[...]

          k =-0.0911 0.0526 0.0000 ( 16164 PWs)   bands (ev):

[...]

     the Fermi energy is     2.8352 ev

!    total energy              =   -2330.26102596 Ry
     Harris-Foulkes estimate   =   -2330.26103959 Ry
     estimated scf accuracy    <       0.00000615 Ry

     The total energy is the sum of the following terms:

     one-electron contribution =  -18644.81687883 Ry
     hartree contribution      =    9309.24124657 Ry
     xc contribution           =    -657.88026991 Ry
     ewald contribution        =    7663.26286478 Ry
     electric field correction =       0.00020739 Ry
     smearing contrib. (-TS)   =      -0.06819596 Ry

     convergence has been achieved in  20 iterations

 BEEF-vdW xc energy contributions
           1 :   -584.635521969800
           2 :    543.164694738848
           3 :   -468.824429215202
           4 :    375.838126372383
           5 :   -279.814226808867
           6 :    193.798298225101
           7 :   -125.641019959893
           8 :    77.2796545838110
           9 :   -45.8808114252495
          10 :    26.1451127309630
          11 :   -12.7668775540462
          12 :    2.15548298423005
[...]

[...]

   This run was terminated on:   1:18:53  20Jan2018

[...]

   This run was terminated on:   1:36: 2  20Jan2018

[...]

     Program PWSCF v.5.1rc2 (svn rev. 11289) starts on 20Jan2018 at  1:36: 7

[...]

     Total force =     0.055917     Total SCF correction =     0.002752

[...]

   This run was terminated on:   1:53: 8  20Jan2018

[...]

     Program PWSCF v.5.1rc2 (svn rev. 11289) starts on 20Jan2018 at  1:53:13

     Current dimensions of program PWSCF are:
     Max number of different atomic species (ntypx) = 10
     Max number of k-points (npk) =  40000
     Max angular momentum in pseudopotentials (lmaxx) =  3
     Presently stress not available with electric field

     IMPORTANT: XC functional enforced from input :
     Exchange-correlation      = BEEF-VDW ( 1  4 27 13 2)
     Any further DFT definition will be discarded
     Please, verify this is what you really want

     Subspace diagonalization in iterative solution of the eigenvalue problem:
     a serial algorithm will be used

     bravais-lattice index     =            0
     lattice parameter (alat)  =       1.8897  a.u.
     unit-cell volume          =    4306.9643 (a.u.)^3
     number of atoms/cell      =           13
     number of atomic types    =            2
     number of electrons       =       186.00
     number of Kohn-Sham states=          103
     kinetic-energy cutoff     =      36.7493  Ry
     charge density cutoff     =     367.4932  Ry
     convergence threshold     =      1.0E-05
     mixing beta               =       0.3000
     number of iterations used =           10  plain     mixing
     Exchange-correlation      = BEEF-VDW ( 1  4 27 13 2)
     nstep                     =           50

     celldm(1)=   1.889726  celldm(2)=   0.000000  celldm(3)=   0.000000
     celldm(4)=   0.000000  celldm(5)=   0.000000  celldm(6)=   0.000000

     crystal axes: (cart. coord. in units of alat)
               a(1) = (   5.486772   0.000000   0.000000 )
               a(2) = (   2.743386   4.751684   0.000000 )
               a(3) = (   0.000000   0.000000  24.479931 )

     reciprocal axes: (cart. coord. in units 2 pi/alat)
               b(1) = (  0.182257 -0.105226  0.000000 )
               b(2) = (  0.000000  0.210452  0.000000 )
               b(3) = (  0.000000  0.000000  0.040850 )

     PseudoPot. # 1 for Re read from file:
     /afs/slac.stanford.edu/u/if/mamunm/psp/gbrv1.5pbe/Re.UPF
     MD5 check sum: 85f993410f3e006da9d71c142b4ad953
     Pseudo is Ultrasoft + core correction, Zval = 15.0
     Generated by new atomic code, or converted to UPF format
     Using radial grid of  981 points,  8 beta functions with:
                l(1) =   0
                l(2) =   0
                l(3) =   1
                l(4) =   1
                l(5) =   2
                l(6) =   2
                l(7) =   3
                l(8) =   3
     Q(r) pseudized with  8 coefficients,  rinner =    1.150   1.150   1.150
                                                       1.150   1.150   1.150
                                                       1.150

     PseudoPot. # 2 for S  read from file:
     /afs/slac.stanford.edu/u/if/mamunm/psp/gbrv1.5pbe/S.UPF
     MD5 check sum: 88d86576ff6df21479756cfb9bdac1df
     Pseudo is Ultrasoft + core correction, Zval =  6.0
     Generated by new atomic code, or converted to UPF format
     Using radial grid of  907 points,  6 beta functions with:
                l(1) =   0
                l(2) =   0
                l(3) =   1
                l(4) =   1
                l(5) =   2
                l(6) =   2
     Q(r) pseudized with  8 coefficients,  rinner =    1.300   1.300   1.300
                                                       1.300   1.300

     vdW kernel table read from file vdW_kernel_table
     MD5 check sum: 095c7af220d748ca6e76c0b4c6cfb241

     atomic species   valence    mass     pseudopotential
        Re1           15.00   186.20700     Re( 1.00)
        S1             6.00    32.06000     S ( 1.00)

     No symmetry found

   Cartesian axes

     site n.     atom                  positions (alat units)
         1           Re1 tau(   1) = (   1.3716930   0.7919474  10.0000000  )
         2           Re1 tau(   2) = (   4.1150791   0.7919474  10.0000000  )
         3           Re1 tau(   3) = (   2.7433861   3.1677894  10.0000000  )
         4           Re1 tau(   4) = (   5.4867722   3.1677894  10.0000000  )
         5           Re1 tau(   5) = (   5.4867722   1.5838947  12.2399654  )
         6           Re1 tau(   6) = (   2.7433861   1.5838947  12.2399654  )
         7           Re1 tau(   7) = (   6.8584652   3.9597368  12.2399654  )
         8           Re1 tau(   8) = (   4.1150791   3.9597368  12.2399654  )
         9           Re1 tau(   9) = (   8.2296877   4.7514827  14.3909245  )
        10           Re1 tau(  10) = (   5.4873761   4.6898301  14.4653011  )
        11           Re1 tau(  11) = (   6.8050137   2.4073317  14.4651893  )
        12           Re1 tau(  12) = (   4.1682915   2.4065200  14.4656114  )
        13           S1  tau(  13) = (   2.7436613   1.5839909  16.1923002  )

     number of k points=    20  Fermi-Dirac smearing, width (Ry)=  0.0110
                       cart. coord. in units 2pi/alat
        k(    1) = (   0.0000000   0.0000000   0.0000000), wk =   0.0555556
        k(    2) = (   0.0000000   0.0350753   0.0000000), wk =   0.1111111
        k(    3) = (   0.0000000   0.0701506   0.0000000), wk =   0.1111111
        k(    4) = (   0.0000000  -0.1052259   0.0000000), wk =   0.0555556
        k(    5) = (   0.0303761  -0.0175376   0.0000000), wk =   0.1111111
        k(    6) = (   0.0303761   0.0175376   0.0000000), wk =   0.1111111
        k(    7) = (   0.0303761   0.0526129   0.0000000), wk =   0.1111111
        k(    8) = (   0.0303761  -0.1227635   0.0000000), wk =   0.1111111
        k(    9) = (   0.0303761  -0.0876882   0.0000000), wk =   0.1111111
        k(   10) = (   0.0303761  -0.0526129   0.0000000), wk =   0.1111111
        k(   11) = (   0.0607522  -0.0350753   0.0000000), wk =   0.1111111
        k(   12) = (   0.0607522   0.0000000   0.0000000), wk =   0.1111111
        k(   13) = (   0.0607522   0.0350753   0.0000000), wk =   0.1111111
        k(   14) = (   0.0607522  -0.1403011   0.0000000), wk =   0.1111111
        k(   15) = (   0.0607522  -0.1052259   0.0000000), wk =   0.1111111
        k(   16) = (   0.0607522  -0.0701506   0.0000000), wk =   0.1111111
        k(   17) = (  -0.0911283   0.0526129   0.0000000), wk =   0.0555556
        k(   18) = (  -0.0911283   0.0876882   0.0000000), wk =   0.1111111
        k(   19) = (  -0.0911283   0.1227635   0.0000000), wk =   0.1111111
        k(   20) = (  -0.0911283  -0.0526129   0.0000000), wk =   0.0555556

     Largest allocated arrays     est. size (Mb)     dimensions
     Largest temporary arrays     est. size (Mb)     dimensions

     Initial potential from superposition of free atoms
     Check: negative starting charge=   -1.538967

     starting charge  179.99942, renormalised to  186.00000

[...]

     *
     * You are using vdW-DF for exchange-correlation in this calculation.
     * Please cite the following three references that made this development
     * possible:
     *
     *   M. Dion, H. Rydberg, E. Schroder, D. C. Langreth, and
     *   B. I. Lundqvist, Phys. Rev. Lett. 92, 246401 (2004).
     *
     *   T. Thonhauser, V. R. Cooper, S. Li, A. Puzder, P. Hyldgaard, and
     *   D. C. Langreth, Phys. Rev. B 76, 125112 (2007).
     *
     *   G. Roman-Perez and J. M. Soler, Phys. Rev. Lett. 103, 096102 (2009).
     *
     *
     * If you are using vdW-DF2, please also cite:
     *
     *   K. Lee, E. D. Murray, L. Kong, B. I. Lundqvist, and
     *   D. C. Langreth, Phys. Rev. B 82, 081101(R) (2010).
     *
     *
     * If you are calculating the stress with vdW-DF, please also cite:
     *
     *   R. Sabatini, E. Kucukbenli, B. Kolb, T. Thonhauser, and
     *   S. de Gironcoli, J. Phys.: Condens. Matter 24, 424209 (2012).
     *

     Carrying out vdW-DF run using the following parameters:

     Nqs =      20    Nr_points =    1024   r_max =   100.000
     q_mesh =
               0.00001000     0.04494208     0.09755937     0.15916263
               0.23128650     0.31572767     0.41458969     0.53033537
               0.66584808     0.82450364     1.01025438     1.22772762
               1.48234092     1.78043706     2.12944203     2.53805004
               3.01644009     3.57652955     4.23227104     5.00000000

     Gradients computed in reciprocal space

[...]

     Starting wfc are  160 randomized atomic wfcs

     Self-consistent Calculation

[...]

     total energy              =   -2330.44577493 Ry
     Harris-Foulkes estimate   =   -2330.44577719 Ry
     estimated scf accuracy    <       0.00006143 Ry

     iteration # 20     ecut=    36.75 Ry     beta=0.30
     Davidson diagonalization with overlap
     ethr =  8.39E-09,  avg # of iterations =  4.4

[...]

     negative rho (up, down):  1.623E+00 0.000E+00

     Adding external electric field

     Computed dipole along edir(3) :
        Dipole                0.0130 Ry au,          0.0330 Debye
        Dipole field          0.0000 Ry au

        Potential amp.       -0.0034 Ry
        Total length         45.1039 bohr

     End of self-consistent calculation

[...]

          k = 0.0608-0.0702 0.0000 ( 16218 PWs)   bands (ev):

[...]

          k =-0.0911-0.0526 0.0000 ( 16164 PWs)   bands (ev):

   -77.3117 -77.2969 -77.2598 -77.2444 -77.2433 -77.2227 -77.2050 -77.1993
   -77.1971 -77.1657 -77.1636 -77.1301 -39.4601 -39.4358 -39.4344 -39.3866
   -39.3347 -39.3320 -39.2276 -39.2158 -39.1960 -39.1473 -39.1365 -39.1342
   -39.0542 -38.9414 -38.9095 -38.9029 -38.8728 -38.8686 -38.8628 -38.8525
   -38.8429 -38.8273 -38.8201 -38.8133 -38.7938 -38.7707 -38.7352 -38.7214
   -38.6651 -38.6484 -38.6101 -38.5949 -38.5643 -38.4985 -38.4816 -38.4613
   -10.2510  -4.0835  -3.9134  -2.7306  -2.4343  -2.0527  -1.9033  -1.9010
    -1.8655  -1.8124  -1.7639  -1.4837  -1.1650  -0.9497  -0.9251  -0.8347
    -0.6823  -0.5494  -0.5114  -0.2837  -0.0810  -0.0074   0.1749   0.1805
     0.3921   0.4822   0.8451   0.9827   1.1274   1.2165   1.2482   1.3257
     1.3926   1.4074   1.5155   1.6348   1.7638   1.8096   1.9011   2.0591
     2.2366   2.2883   2.5303   3.1342   3.1853   3.2500   3.3048   3.4922
     3.7215   3.7971   3.8720   4.0189   4.3164   4.3166   4.3938

     the Fermi energy is     3.2664 ev

!    total energy              =   -2330.44576788 Ry
     Harris-Foulkes estimate   =   -2330.44577877 Ry
     estimated scf accuracy    <       0.00000946 Ry

     The total energy is the sum of the following terms:

     one-electron contribution =  -19028.54085499 Ry
     hartree contribution      =    9503.32422158 Ry
     xc contribution           =    -658.46572756 Ry
     ewald contribution        =    7853.29863097 Ry
     electric field correction =       0.00000049 Ry
     smearing contrib. (-TS)   =      -0.06203837 Ry

     convergence has been achieved in  20 iterations

 BEEF-vdW xc energy contributions
           1 :   -585.229358122561
           2 :    543.987510795159
           3 :   -469.932035992866
           4 :    377.083403511435
           5 :   -280.948456545101
           6 :    194.608435714287
           7 :   -126.048677288932
           8 :    77.3610500615861
           9 :   -45.8068212536145
          10 :    26.0815669047389
          11 :   -12.7915552228795
          12 :    2.23355299999650
          13 :    6.98562560985567
          14 :   -14.4218488833059
          15 :    18.8973822788613
          16 :   -19.6431973662339
          17 :    16.9891204053355
          18 :   -12.3823926031949
          19 :    7.82657049085890
          20 :   -5.06775468883654
          21 :    4.92202687921281
          22 :   -7.03512450057099
          23 :    10.1457161678660
          24 :   -12.7017153118064
          25 :    13.5394005061784
          26 :   -12.3323323035132
          27 :    9.63852919002954
          28 :   -6.56444564342894
          29 :    4.22869638536906
          30 :   -3.28097902732827
          31 :   -48.8856418713457
          32 :   -36.2892857526024

     Forces acting on atoms (Ry/au):

     negative rho (up, down):  1.623E+00 0.000E+00
     atom    1 type  1   force =    -0.00210940   -0.00119900    0.01807629
     atom    2 type  1   force =     0.00207966   -0.00121995    0.01806328
     atom    3 type  1   force =    -0.00002183    0.00240850    0.01806904
     atom    4 type  1   force =     0.00003265   -0.00000172    0.02004857
     atom    5 type  1   force =     0.00009750   -0.00353156   -0.02381636
     atom    6 type  1   force =    -0.00007792    0.00000953    0.00293115
     atom    7 type  1   force =     0.00311501    0.00176008   -0.02394290
     atom    8 type  1   force =    -0.00304978    0.00182595   -0.02380419
     atom    9 type  1   force =     0.00050838    0.00023826   -0.00124552
     atom   10 type  1   force =    -0.00062475    0.00086949   -0.00094909
     atom   11 type  1   force =     0.00057196   -0.00097790   -0.00087406
     atom   12 type  1   force =    -0.00035266   -0.00013237   -0.00126141
     atom   13 type  2   force =    -0.00016882   -0.00004931   -0.00129482

     Total force =     0.056232     Total SCF correction =     0.021344
     SCF correction compared to forces is large: reduce conv_thr to get better values

     entering subroutine stress ...

     negative rho (up, down):  1.623E+00 0.000E+00
          total   stress  (Ry/bohr**3)                   (kbar)     P=  -12.80
  -0.00007812  -0.00000001  -0.00000018        -11.49     -0.00     -0.03
  -0.00000001  -0.00007806  -0.00000008         -0.00    -11.48     -0.01
  -0.00000018  -0.00000008  -0.00010492         -0.03     -0.01    -15.43

 !ASE

     Writing output data file calc.save

     General routines

     Parallel routines

   This run was terminated on:   2: 9:42  20Jan2018

   JOB DONE.
Job  /afs/slac/g/suncat/bin/suncat-tsmpirun -x LD_LIBRARY_PATH -wdir /scratch/qe891277_6vdUv pw.x -in pw.inp

TID   HOST_NAME   COMMAND_LINE            STATUS            TERMINATION_TIME
00000 suncat0217 pw.x -in pw.inp   Done                     01/20/2018 02:09:42
00001 suncat0217 pw.x -in pw.inp   Done                     01/20/2018 02:09:42
00002 suncat0217 pw.x -in pw.inp   Done                     01/20/2018 02:09:42
00003 suncat0217 pw.x -in pw.inp   Done                     01/20/2018 02:09:42
00004 suncat0217 pw.x -in pw.inp   Done                     01/20/2018 02:09:42
00005 suncat0217 pw.x -in pw.inp   Done                     01/20/2018 02:09:42
00006 suncat0217 pw.x -in pw.inp   Done                     01/20/2018 02:09:42
00007 suncat0217 pw.x -in pw.inp   Done                     01/20/2018 02:09:42
00008 suncat0216 pw.x -in pw.inp   Done                     01/20/2018 02:09:42
00009 suncat0216 pw.x -in pw.inp   Done                     01/20/2018 02:09:42
00010 suncat0216 pw.x -in pw.inp   Done                     01/20/2018 02:09:42
00011 suncat0216 pw.x -in pw.inp   Done                     01/20/2018 02:09:42
00012 suncat0216 pw.x -in pw.inp   Done                     01/20/2018 02:09:42
00013 suncat0216 pw.x -in pw.inp   Done                     01/20/2018 02:09:42
00014 suncat0216 pw.x -in pw.inp   Done                     01/20/2018 02:09:42
00015 suncat0216 pw.x -in pw.inp   Done                     01/20/2018 02:09:42
00016 suncat0215 pw.x -in pw.inp   Done                     01/20/2018 02:09:42
00017 suncat0215 pw.x -in pw.inp   Done                     01/20/2018 02:09:42
00018 suncat0215 pw.x -in pw.inp   Done                     01/20/2018 02:09:42
00019 suncat0215 pw.x -in pw.inp   Done                     01/20/2018 02:09:42
00020 suncat0215 pw.x -in pw.inp   Done                     01/20/2018 02:09:42
00021 suncat0215 pw.x -in pw.inp   Done                     01/20/2018 02:09:42
00022 suncat0215 pw.x -in pw.inp   Done                     01/20/2018 02:09:42
00023 suncat0215 pw.x -in pw.inp   Done                     01/20/2018 02:09:42
00024 suncat0213 pw.x -in pw.inp   Done                     01/20/2018 02:09:42
00025 suncat0213 pw.x -in pw.inp   Done                     01/20/2018 02:09:42
00026 suncat0213 pw.x -in pw.inp   Done                     01/20/2018 02:09:42
00027 suncat0213 pw.x -in pw.inp   Done                     01/20/2018 02:09:42
00028 suncat0213 pw.x -in pw.inp   Done                     01/20/2018 02:09:42
00029 suncat0213 pw.x -in pw.inp   Done                     01/20/2018 02:09:42
00030 suncat0213 pw.x -in pw.inp   Done                     01/20/2018 02:09:42
00031 suncat0213 pw.x -in pw.inp   Done                     01/20/2018 02:09:42