     Program PWSCF v.5.1rc2 (svn rev. 11289) starts on  3May2018 at 18:39:43

     Current dimensions of program PWSCF are:
     Max number of different atomic species (ntypx) = 10
     Max number of k-points (npk) =  40000
     Max angular momentum in pseudopotentials (lmaxx) =  3
     Presently stress not available with electric field

     IMPORTANT: XC functional enforced from input :
     Exchange-correlation      = BEEF-VDW ( 1  4 27 13 2)
     Any further DFT definition will be discarded
     Please, verify this is what you really want

     Subspace diagonalization in iterative solution of the eigenvalue problem:
     a serial algorithm will be used

     bravais-lattice index     =            0
     lattice parameter (alat)  =       1.8897  a.u.
     unit-cell volume          =    5409.9593 (a.u.)^3
     number of atoms/cell      =           13
     number of atomic types    =            2
     number of electrons       =       229.00
     number of Kohn-Sham states=          124
     kinetic-energy cutoff     =      36.7493  Ry
     charge density cutoff     =     367.4932  Ry
     convergence threshold     =      1.0E-05
     mixing beta               =       0.3000
     number of iterations used =           10  plain     mixing
     Exchange-correlation      = BEEF-VDW ( 1  4 27 13 2)
     nstep                     =           50

     celldm(1)=   1.889726  celldm(2)=   0.000000  celldm(3)=   0.000000
     celldm(4)=   0.000000  celldm(5)=   0.000000  celldm(6)=   0.000000

     crystal axes: (cart. coord. in units of alat)
               a(1) = (   6.088539   0.000000   0.000000 )
               a(2) = (   3.044269   5.272829   0.000000 )
               a(3) = (   0.000000   0.000000  24.971271 )

     reciprocal axes: (cart. coord. in units 2 pi/alat)
               b(1) = (  0.164243 -0.094826  0.000000 )
               b(2) = (  0.000000  0.189652  0.000000 )
               b(3) = (  0.000000  0.000000  0.040046 )

     PseudoPot. # 1 for Ga read from file:
     /u/if/mamunm/psp/gbrv1.5pbe/Ga.UPF
     MD5 check sum: ccd671392a58a050fbb373893b4fcd66
     Pseudo is Ultrasoft + core correction, Zval = 19.0
     Generated by new atomic code, or converted to UPF format
     Using radial grid of  871 points,  6 beta functions with:
                l(1) =   0
                l(2) =   0
                l(3) =   1
                l(4) =   1
                l(5) =   2
                l(6) =   2
     Q(r) pseudized with  8 coefficients,  rinner =    1.250   1.250   1.250
                                                       1.250   1.250

     PseudoPot. # 2 for H  read from file:
     /u/if/mamunm/psp/gbrv1.5pbe/H.UPF
     MD5 check sum: 761ae9a214b05c3daf00ab9f6b793d6f
     Pseudo is Ultrasoft, Zval =  1.0
     Generated by new atomic code, or converted to UPF format
     Using radial grid of  615 points,  2 beta functions with:
                l(1) =   0
                l(2) =   0
     Q(r) pseudized with  8 coefficients,  rinner =    0.700

     vdW kernel table read from file vdW_kernel_table
     MD5 check sum: 095c7af220d748ca6e76c0b4c6cfb241

     atomic species   valence    mass     pseudopotential
        Ga1           19.00    69.72300     Ga( 1.00)
        H1             1.00     1.00800     H ( 1.00)

     No symmetry found

   Cartesian axes

     site n.     atom                  positions (alat units)
         1           Ga1 tau(   1) = (   1.5221346   0.8788048  10.0000000  )
         2           Ga1 tau(   2) = (   4.5664039   0.8788048  10.0000000  )
         3           Ga1 tau(   3) = (   3.0442693   3.5152194  10.0000000  )
         4           Ga1 tau(   4) = (   6.0885386   3.5152194  10.0000000  )
         5           Ga1 tau(   5) = (   6.0885386   1.7576097  12.4856355  )
         6           Ga1 tau(   6) = (   3.0442693   1.7576097  12.4856355  )
         7           Ga1 tau(   7) = (   7.6106732   4.3940242  12.4856355  )
         8           Ga1 tau(   8) = (   4.5664039   4.3940242  12.4856355  )
         9           Ga1 tau(   9) = (   0.0000000   0.0000000  14.9712709  )
        10           Ga1 tau(  10) = (   3.0442693   0.0000000  14.9712709  )
        11           Ga1 tau(  11) = (   1.5221346   2.6364145  14.9712709  )
        12           Ga1 tau(  12) = (   4.5664039   2.6364145  14.9712709  )
        13           H1  tau(  13) = (   3.0442693   1.7576097  15.9657709  )

     number of k points=    20  Fermi-Dirac smearing, width (Ry)=  0.0110
                       cart. coord. in units 2pi/alat
        k(    1) = (   0.0000000   0.0000000   0.0000000), wk =   0.0555556
        k(    2) = (   0.0000000   0.0316086   0.0000000), wk =   0.1111111
        k(    3) = (   0.0000000   0.0632172   0.0000000), wk =   0.1111111
        k(    4) = (   0.0000000  -0.0948258   0.0000000), wk =   0.0555556
        k(    5) = (   0.0273738  -0.0158043   0.0000000), wk =   0.1111111
        k(    6) = (   0.0273738   0.0158043   0.0000000), wk =   0.1111111
        k(    7) = (   0.0273738   0.0474129   0.0000000), wk =   0.1111111
        k(    8) = (   0.0273738  -0.1106300   0.0000000), wk =   0.1111111
        k(    9) = (   0.0273738  -0.0790215   0.0000000), wk =   0.1111111
        k(   10) = (   0.0273738  -0.0474129   0.0000000), wk =   0.1111111
        k(   11) = (   0.0547477  -0.0316086   0.0000000), wk =   0.1111111
        k(   12) = (   0.0547477   0.0000000   0.0000000), wk =   0.1111111
        k(   13) = (   0.0547477   0.0316086   0.0000000), wk =   0.1111111
        k(   14) = (   0.0547477  -0.1264343   0.0000000), wk =   0.1111111
        k(   15) = (   0.0547477  -0.0948258   0.0000000), wk =   0.1111111
        k(   16) = (   0.0547477  -0.0632172   0.0000000), wk =   0.1111111
        k(   17) = (  -0.0821215   0.0474129   0.0000000), wk =   0.0555556
        k(   18) = (  -0.0821215   0.0790215   0.0000000), wk =   0.1111111
        k(   19) = (  -0.0821215   0.1106300   0.0000000), wk =   0.1111111
        k(   20) = (  -0.0821215  -0.0474129   0.0000000), wk =   0.0555556

     Largest allocated arrays     est. size (Mb)     dimensions
     Largest temporary arrays     est. size (Mb)     dimensions

     Initial potential from superposition of free atoms
     Check: negative starting charge=   -0.001294

     starting charge  216.99998, renormalised to  229.00000

     negative rho (up, down):  1.366E-03 0.000E+00

     *
     * You are using vdW-DF for exchange-correlation in this calculation.
     * Please cite the following three references that made this development
     * possible:
     *
     *   M. Dion, H. Rydberg, E. Schroder, D. C. Langreth, and
     *   B. I. Lundqvist, Phys. Rev. Lett. 92, 246401 (2004).
     *
     *   T. Thonhauser, V. R. Cooper, S. Li, A. Puzder, P. Hyldgaard, and
     *   D. C. Langreth, Phys. Rev. B 76, 125112 (2007).
     *
     *   G. Roman-Perez and J. M. Soler, Phys. Rev. Lett. 103, 096102 (2009).
     *
     *
     * If you are using vdW-DF2, please also cite:
     *
     *   K. Lee, E. D. Murray, L. Kong, B. I. Lundqvist, and
     *   D. C. Langreth, Phys. Rev. B 82, 081101(R) (2010).
     *
     *
     * If you are calculating the stress with vdW-DF, please also cite:
     *
     *   R. Sabatini, E. Kucukbenli, B. Kolb, T. Thonhauser, and
     *   S. de Gironcoli, J. Phys.: Condens. Matter 24, 424209 (2012).
     *

     Carrying out vdW-DF run using the following parameters:

     Nqs =      20    Nr_points =    1024   r_max =   100.000
     q_mesh =
               0.00001000     0.04494208     0.09755937     0.15916263
               0.23128650     0.31572767     0.41458969     0.53033537
               0.66584808     0.82450364     1.01025438     1.22772762
               1.48234092     1.78043706     2.12944203     2.53805004
               3.01644009     3.57652955     4.23227104     5.00000000

     Gradients computed in reciprocal space

     Adding external electric field

     Computed dipole along edir(3) :
        Dipole               -0.3636 Ry au,         -0.9242 Debye
        Dipole field         -0.0008 Ry au

        Potential amp.        0.0777 Ry
        Total length         46.0091 bohr

     Starting wfc are  145 randomized atomic wfcs

     Self-consistent Calculation

     iteration #  1     ecut=    36.75 Ry     beta=0.30
     Davidson diagonalization with overlap
     ethr =  1.00E-02,  avg # of iterations =  8.2

[...]

     total energy              =   -4935.43926583 Ry
     Harris-Foulkes estimate   =   -5023.58356274 Ry
     estimated scf accuracy    <     184.17978683 Ry

[...]

     End of self-consistent calculation

          k = 0.0000 0.0000 0.0000 ( 20347 PWs)   bands (ev):

   -94.6508 -94.6489 -94.6485 -94.6485 -94.6355 -94.6355 -94.6353 -94.6349
   -94.6340 -94.6340 -94.6268 -94.6268 -94.6158 -94.6156 -94.6156 -94.5948
   -94.5936 -94.5936 -94.5932 -94.5932 -94.5928 -94.5924 -94.5924 -94.5921
   -94.5921 -94.5920 -94.5900 -94.5900 -94.5897 -94.5887 -94.5877 -94.5877
   -94.5829 -94.5810 -94.5631 -94.5631 -15.1326 -15.1129 -15.1129 -15.0971
   -15.0743 -15.0743 -15.0705 -15.0626 -15.0626 -15.0539 -15.0399 -15.0368
   -15.0368 -15.0325 -15.0156 -15.0089 -15.0089 -15.0037 -15.0003 -15.0003
   -14.9979 -14.9979 -14.9912 -14.9830 -14.9830 -14.9780 -14.9744 -14.9744
   -14.9665 -14.9665 -14.9243 -14.9243 -14.9178 -14.8978 -14.8978 -14.8934
   -14.8934 -14.8898 -14.8898 -14.8823 -14.8465 -14.8465 -14.8460 -14.8417
   -14.8342 -14.8342 -14.8323 -14.8285 -14.8285 -14.8174 -14.8174 -14.8103
   -14.8040 -14.8040 -14.8007 -14.8007 -14.7953 -14.7900 -14.7900 -14.7872
   -10.0508  -8.7358  -6.6683  -5.1081  -4.7839  -4.7839  -4.4692  -4.4264
    -4.4264  -3.7911  -3.1983  -3.1983  -3.1274  -2.6264  -2.6264  -2.3841
    -1.4410  -0.9103  -0.9103  -0.8489  -0.6804  -0.6804   0.6125   2.0738
     2.9481   3.0587   3.0587   3.1419

[...]

          k =-0.0821 0.0474 0.0000 ( 20384 PWs)   bands (ev):

[...]

     the Fermi energy is     0.1226 ev

!    total energy              =   -5000.18986768 Ry
     Harris-Foulkes estimate   =   -5000.18987608 Ry
     estimated scf accuracy    <       0.00000624 Ry

     The total energy is the sum of the following terms:

     one-electron contribution =  -27150.72899901 Ry
     hartree contribution      =   13579.44498123 Ry
     xc contribution           =    -597.19569504 Ry
     ewald contribution        =    9168.32343676 Ry
     electric field correction =       0.00000037 Ry
     smearing contrib. (-TS)   =      -0.03359199 Ry

     convergence has been achieved in  15 iterations

 BEEF-vdW xc energy contributions
           1 :   -533.992038871845
           2 :    484.847288112595
           3 :   -402.392409186037
           4 :    310.560544179997
           5 :   -230.615156673973
           6 :    173.130770964411
           7 :   -136.417539893763
           8 :    111.227038542038
           9 :   -88.1734892754182
          10 :    63.2488953544836
          11 :   -38.6366580636042
          12 :    19.3075727328398
          13 :   -8.43511393847018
          14 :    4.91510826332023
          15 :   -4.35220767168062
          16 :    2.30309493164964
          17 :    2.82321174729952
          18 :   -9.23081652001906
          19 :    13.6654511603988
          20 :   -14.1403664432962
          21 :    11.4009076438124
          22 :   -8.19838948446454
          23 :    7.12455348017454
          24 :   -8.74423756295005
          25 :    11.3887494167200
          26 :   -12.6341551640177
          27 :    11.2322599547201
          28 :   -8.01755935420329
          29 :    5.17903372934734
          30 :   -4.54800609522033
          31 :   -39.3356972177371
          32 :   -26.7072301991143

     Forces acting on atoms (Ry/au):

     negative rho (up, down):  1.028E-03 0.000E+00
     atom    1 type  1   force =    -0.00000837   -0.00000430    0.00861884
     atom    2 type  1   force =     0.00000233   -0.00000574    0.00863755
     atom    3 type  1   force =    -0.00000135    0.00000529    0.00861888
     atom    4 type  1   force =     0.00000026   -0.00000156    0.00809774
     atom    5 type  1   force =    -0.00000160   -0.00233068   -0.00356579
     atom    6 type  1   force =     0.00001071    0.00000126    0.00199611
     atom    7 type  1   force =     0.00202216    0.00116887   -0.00359185
     atom    8 type  1   force =    -0.00201668    0.00116700   -0.00361280
     atom    9 type  1   force =    -0.00000849   -0.00000322   -0.00825712
     atom   10 type  1   force =     0.00000583   -0.00523919   -0.00091337
     atom   11 type  1   force =    -0.00453903    0.00262134   -0.00092152
     atom   12 type  1   force =     0.00453637    0.00262241   -0.00091479
     atom   13 type  2   force =    -0.00000214   -0.00000150   -0.01419189

     Total force =     0.018828     Total SCF correction =     0.003806
     SCF correction compared to forces is large: reduce conv_thr to get better values

     entering subroutine stress ...

     negative rho (up, down):  1.028E-03 0.000E+00
          total   stress  (Ry/bohr**3)                   (kbar)     P=  -10.11
  -0.00007279  -0.00000000  -0.00000000        -10.71     -0.00     -0.00
  -0.00000000  -0.00007279   0.00000000         -0.00    -10.71      0.00
  -0.00000000   0.00000000  -0.00006063         -0.00      0.00     -8.92

     BFGS Geometry Optimization

     number of scf cycles    =   1
     number of bfgs steps    =   0

     energy   new            =   -5000.1898676767 Ry

     new trust radius        =       0.0141918891 bohr
     new conv_thr            =       0.0000099958 Ry

ATOMIC_POSITIONS (crystal)
Ga1      0.166666667   0.166666667   0.400460194    0   0   0
Ga1      0.666666667   0.166666667   0.400460194    0   0   0
Ga1      0.166666667   0.666666667   0.400460194    0   0   0
Ga1      0.666666667   0.666666667   0.400460194    0   0   0
Ga1      0.833333333   0.333333333   0.500000000    0   0   0
Ga1      0.333333333   0.333333333   0.500000000    0   0   0
Ga1      0.833333333   0.833333333   0.500000000    0   0   0
Ga1      0.333333333   0.833333333   0.500000000    0   0   0
Ga1     -0.000000577  -0.000000323   0.599364826
Ga1      0.500263407  -0.000525801   0.599520450
Ga1     -0.000526041   0.500263076   0.599520278
Ga1      0.500262681   0.500263183   0.599520420
H1       0.333333222   0.333333183   0.639064826

     Writing output data file calc.save
     Check: negative starting charge=   -0.001294
     NEW-OLD atomic charge density approx. for the potential
     Check: negative starting charge=   -0.001297

[...]

     Total force =     0.014854     Total SCF correction =     0.001325

[...]

     energy   old            =   -5000.1898676767 Ry
     energy   new            =   -5000.1901432781 Ry

     CASE: energy  _new < energy  _old

[...]

     Threshold (ethr) on eigenvalues was too large:
     Diagonalizing with lowered threshold

     Davidson diagonalization with overlap
     ethr =  2.52E-08,  avg # of iterations =  1.6

[...]

     WARNING: bfgs curvature condition failed, Theta= 0.871
     new trust radius        =       0.0234166171 bohr
     new conv_thr            =       0.0000001000 Ry

[...]

     Threshold (ethr) on eigenvalues was too large:
     Diagonalizing with lowered threshold

     Davidson diagonalization with overlap
     ethr =  2.20E-08,  avg # of iterations =  3.0

[...]

     Total force =     0.008784     Total SCF correction =     0.000509

[...]

     WARNING: bfgs curvature condition failed, Theta= 0.942
     new trust radius        =       0.0296004744 bohr
     new conv_thr            =       0.0000001000 Ry

[...]

     number of scf cycles    =  16
     number of bfgs steps    =  15

     energy   old            =   -5000.1945152147 Ry
     energy   new            =   -5000.1946461517 Ry

     CASE: energy  _new < energy  _old

     new trust radius        =       0.0336660465 bohr
     new conv_thr            =       0.0000001000 Ry

ATOMIC_POSITIONS (crystal)
Ga1      0.166666667   0.166666667   0.400460194    0   0   0
Ga1      0.666666667   0.166666667   0.400460194    0   0   0
Ga1      0.166666667   0.666666667   0.400460194    0   0   0
Ga1      0.666666667   0.666666667   0.400460194    0   0   0
Ga1      0.833333333   0.333333333   0.500000000    0   0   0
Ga1      0.333333333   0.333333333   0.500000000    0   0   0
Ga1      0.833333333   0.833333333   0.500000000    0   0   0
Ga1      0.333333333   0.833333333   0.500000000    0   0   0
Ga1      0.000004512   0.000001239   0.595972181
Ga1      0.506906268  -0.013817193   0.598306076
Ga1     -0.013821887   0.506909058   0.598308467
Ga1      0.506907195   0.506908292   0.598307551
H1       0.333336314   0.333333498   0.624727103

     Writing output data file calc.save
     Check: negative starting charge=   -0.001333
     NEW-OLD atomic charge density approx. for the potential
     Check: negative starting charge=   -0.001338

[...]

     Self-consistent Calculation

[...]

     total energy              =   -5000.19477437 Ry
     Harris-Foulkes estimate   =   -5000.19477438 Ry
     estimated scf accuracy    <       0.00000045 Ry

     iteration #  7     ecut=    36.75 Ry     beta=0.30
     Davidson diagonalization with overlap
     ethr =  1.95E-10,  avg # of iterations =  3.5

[...]

     negative rho (up, down):  1.049E-03 0.000E+00

     Adding external electric field

     Computed dipole along edir(3) :
        Dipole               -0.0053 Ry au,         -0.0134 Debye
        Dipole field         -0.0000 Ry au

        Potential amp.        0.0011 Ry
        Total length         46.0091 bohr

     End of self-consistent calculation

[...]

          k = 0.0547-0.0632 0.0000 ( 20377 PWs)   bands (ev):

[...]

          k =-0.0821-0.0474 0.0000 ( 20384 PWs)   bands (ev):

   -94.6364 -94.6363 -94.6362 -94.6238 -94.6237 -94.6233 -94.6205 -94.6197
   -94.6193 -94.6087 -94.5845 -94.5844 -94.5768 -94.5767 -94.5767 -94.5556
   -94.5551 -94.5547 -94.5546 -94.5544 -94.5543 -94.5541 -94.5540 -94.5538
   -94.5527 -94.5526 -94.5523 -94.5497 -94.5495 -94.5494 -94.5390 -94.5389
   -94.5349 -94.5330 -94.5205 -94.5205 -15.0858 -15.0398 -15.0340 -15.0307
   -15.0263 -15.0175 -15.0113 -15.0087 -15.0081 -14.9929 -14.9842 -14.9838
   -14.9769 -14.9758 -14.9740 -14.9706 -14.9645 -14.9579 -14.9526 -14.9513
   -14.9465 -14.9417 -14.9395 -14.9332 -14.9253 -14.9249 -14.9218 -14.9167
   -14.9161 -14.9080 -14.9078 -14.9015 -14.8970 -14.8836 -14.8788 -14.8736
   -14.8714 -14.8652 -14.8567 -14.8542 -14.8518 -14.8513 -14.8479 -14.8391
   -14.8363 -14.8351 -14.8313 -14.8307 -14.8300 -14.8199 -14.8197 -14.8137
   -14.8106 -14.7980 -14.7906 -14.7860 -14.7840 -14.7763 -14.7606 -14.7542
    -8.8237  -8.6845  -7.6168  -7.2234  -6.1555  -5.9055  -5.4294  -4.9791
    -4.6295  -4.5157  -2.7951  -2.5363  -1.5502  -0.8714  -0.6138  -0.3758
    -0.1133  -0.0131   0.9895   1.0695   1.0763   1.2816   1.3348   2.0840
     2.1639   2.3040   2.5295   2.5924

     the Fermi energy is     0.1559 ev

!    total energy              =   -5000.19477447 Ry
     Harris-Foulkes estimate   =   -5000.19477445 Ry
     estimated scf accuracy    <       0.00000009 Ry

     The total energy is the sum of the following terms:

     one-electron contribution =  -27324.61996186 Ry
     hartree contribution      =   13666.72435538 Ry
     xc contribution           =    -597.25982341 Ry
     ewald contribution        =    9254.99245952 Ry
     electric field correction =       0.00000006 Ry
     smearing contrib. (-TS)   =      -0.03180416 Ry

     convergence has been achieved in   7 iterations

 BEEF-vdW xc energy contributions
           1 :   -534.060150474765
           2 :    484.946956648413
           3 :   -402.524356522232
           4 :    310.690828198217
           5 :   -230.698852470390
           6 :    173.142934912321
           7 :   -136.370273859928
           8 :    111.161607061312
           9 :   -88.1335800908553
          10 :    63.2545384684710
          11 :   -38.6762829061892
          12 :    19.3519502656758
          13 :   -8.46142328469341
          14 :    4.92201788890247
          15 :   -4.35552181473815
          16 :    2.31801437898230
          17 :    2.79724720111290
          18 :   -9.21000227374634
          19 :    13.6662612405464
          20 :   -14.1623908126292
          21 :    11.4235378677058
          22 :   -8.19556517830506
          23 :    7.08710149043031
          24 :   -8.69210520173544
          25 :    11.3622501024981
          26 :   -12.6684100632327
          27 :    11.3319305107536
          28 :   -8.14890460040090
          29 :    5.28374792926161
          30 :   -4.56879505275515
          31 :   -39.3415114583828
          32 :   -26.7198695878775

     Forces acting on atoms (Ry/au):

     negative rho (up, down):  1.049E-03 0.000E+00
     atom    1 type  1   force =     0.00141185    0.00081536    0.00377358
     atom    2 type  1   force =    -0.00141109    0.00081517    0.00377441
     atom    3 type  1   force =     0.00000022   -0.00163045    0.00377207
     atom    4 type  1   force =     0.00000010    0.00000001    0.00411245
     atom    5 type  1   force =    -0.00000033   -0.00012178   -0.00361824
     atom    6 type  1   force =    -0.00000046    0.00000067   -0.00286769
     atom    7 type  1   force =     0.00010548    0.00006026   -0.00361534
     atom    8 type  1   force =    -0.00010564    0.00006043   -0.00361660
     atom    9 type  1   force =    -0.00000271   -0.00000118    0.00064173
     atom   10 type  1   force =     0.00000167   -0.00113898   -0.00127199
     atom   11 type  1   force =    -0.00098573    0.00057099   -0.00127341
     atom   12 type  1   force =     0.00098578    0.00056970   -0.00127328
     atom   13 type  2   force =     0.00000087   -0.00000020    0.00146232

     Total force =     0.003362     Total SCF correction =     0.000759
     SCF correction compared to forces is large: reduce conv_thr to get better values

     entering subroutine stress ...

     negative rho (up, down):  1.049E-03 0.000E+00
          total   stress  (Ry/bohr**3)                   (kbar)     P=   -4.40
  -0.00003435  -0.00000000   0.00000000         -5.05     -0.00      0.00
  -0.00000000  -0.00003435   0.00000000         -0.00     -5.05      0.00
   0.00000000   0.00000000  -0.00002103          0.00      0.00     -3.09

     bfgs converged in  17 scf cycles and  16 bfgs steps
     (criteria: energy <  1.0E+00, force <  1.9E-03)

     End of BFGS Geometry Optimization

     Final energy   =   -5000.1947744651 Ry
Begin final coordinates

ATOMIC_POSITIONS (crystal)
Ga1      0.166666667   0.166666667   0.400460194    0   0   0
Ga1      0.666666667   0.166666667   0.400460194    0   0   0
Ga1      0.166666667   0.666666667   0.400460194    0   0   0
Ga1      0.666666667   0.666666667   0.400460194    0   0   0
Ga1      0.833333333   0.333333333   0.500000000    0   0   0
Ga1      0.333333333   0.333333333   0.500000000    0   0   0
Ga1      0.833333333   0.833333333   0.500000000    0   0   0
Ga1      0.333333333   0.833333333   0.500000000    0   0   0
Ga1      0.000004512   0.000001239   0.595972181
Ga1      0.506906268  -0.013817193   0.598306076
Ga1     -0.013821887   0.506909058   0.598308467
Ga1      0.506907195   0.506908292   0.598307551
H1       0.333336314   0.333333498   0.624727103
End final coordinates

     Writing output data file calc.save

     General routines

     Parallel routines

   This run was terminated on:  20:23:32   3May2018

   JOB DONE.
Job  /afs/slac/g/suncat/bin/suncat-tsmpirun -x LD_LIBRARY_PATH -wdir /scratch/qe817955_9gQ4s pw.x -npool 4 -in pw.inp

TID   HOST_NAME   COMMAND_LINE            STATUS            TERMINATION_TIME
00000 suncat0192 pw.x -npool 4 -i  Done                     05/03/2018 20:23:32
00001 suncat0192 pw.x -npool 4 -i  Done                     05/03/2018 20:23:32
00002 suncat0192 pw.x -npool 4 -i  Done                     05/03/2018 20:23:32
00003 suncat0192 pw.x -npool 4 -i  Done                     05/03/2018 20:23:32
00004 suncat0192 pw.x -npool 4 -i  Done                     05/03/2018 20:23:32
00005 suncat0192 pw.x -npool 4 -i  Done                     05/03/2018 20:23:32
00006 suncat0192 pw.x -npool 4 -i  Done                     05/03/2018 20:23:32
00007 suncat0192 pw.x -npool 4 -i  Done                     05/03/2018 20:23:32
00008 suncat0138 pw.x -npool 4 -i  Done                     05/03/2018 20:23:32
00009 suncat0138 pw.x -npool 4 -i  Done                     05/03/2018 20:23:32
00010 suncat0138 pw.x -npool 4 -i  Done                     05/03/2018 20:23:32
00011 suncat0138 pw.x -npool 4 -i  Done                     05/03/2018 20:23:32
00012 suncat0138 pw.x -npool 4 -i  Done                     05/03/2018 20:23:32
00013 suncat0138 pw.x -npool 4 -i  Done                     05/03/2018 20:23:32
00014 suncat0138 pw.x -npool 4 -i  Done                     05/03/2018 20:23:32
00015 suncat0138 pw.x -npool 4 -i  Done                     05/03/2018 20:23:32
00016 suncat0137 pw.x -npool 4 -i  Done                     05/03/2018 20:23:32
00017 suncat0137 pw.x -npool 4 -i  Done                     05/03/2018 20:23:32
00018 suncat0137 pw.x -npool 4 -i  Done                     05/03/2018 20:23:32
00019 suncat0137 pw.x -npool 4 -i  Done                     05/03/2018 20:23:32
00020 suncat0137 pw.x -npool 4 -i  Done                     05/03/2018 20:23:32
00021 suncat0137 pw.x -npool 4 -i  Done                     05/03/2018 20:23:32
00022 suncat0137 pw.x -npool 4 -i  Done                     05/03/2018 20:23:32
00023 suncat0137 pw.x -npool 4 -i  Done                     05/03/2018 20:23:32
00024 suncat0134 pw.x -npool 4 -i  Done                     05/03/2018 20:23:32
00025 suncat0134 pw.x -npool 4 -i  Done                     05/03/2018 20:23:32
00026 suncat0134 pw.x -npool 4 -i  Done                     05/03/2018 20:23:32
00027 suncat0134 pw.x -npool 4 -i  Done                     05/03/2018 20:23:32
00028 suncat0134 pw.x -npool 4 -i  Done                     05/03/2018 20:23:32
00029 suncat0134 pw.x -npool 4 -i  Done                     05/03/2018 20:23:32
00030 suncat0134 pw.x -npool 4 -i  Done                     05/03/2018 20:23:32
00031 suncat0134 pw.x -npool 4 -i  Done                     05/03/2018 20:23:32