     Program PWSCF v.5.1rc2 (svn rev. 11289) starts on 23Apr2018 at 14:22:37

     Current dimensions of program PWSCF are:
     Max number of different atomic species (ntypx) = 10
     Max number of k-points (npk) =  40000
     Max angular momentum in pseudopotentials (lmaxx) =  3
     Presently stress not available with electric field

     IMPORTANT: XC functional enforced from input :
     Exchange-correlation      = BEEF-VDW ( 1  4 27 13 2)
     Any further DFT definition will be discarded
     Please, verify this is what you really want

     Subspace diagonalization in iterative solution of the eigenvalue problem:
     a serial algorithm will be used

     bravais-lattice index     =            0
     lattice parameter (alat)  =       1.8897  a.u.
     unit-cell volume          =    4301.6107 (a.u.)^3
     number of atoms/cell      =           15
     number of atomic types    =            3
     number of electrons       =       186.00
     number of Kohn-Sham states=          103
     kinetic-energy cutoff     =      36.7493  Ry
     charge density cutoff     =     367.4932  Ry
     convergence threshold     =      1.0E-05
     mixing beta               =       0.3000
     number of iterations used =           10  plain     mixing
     Exchange-correlation      = BEEF-VDW ( 1  4 27 13 2)
     nstep                     =           50

     celldm(1)=   1.889726  celldm(2)=   0.000000  celldm(3)=   0.000000
     celldm(4)=   0.000000  celldm(5)=   0.000000  celldm(6)=   0.000000

     crystal axes: (cart. coord. in units of alat)
               a(1) = (   5.483647   0.000000   0.000000 )
               a(2) = (   2.741823   4.748977   0.000000 )
               a(3) = (   0.000000   0.000000  24.477379 )

     reciprocal axes: (cart. coord. in units 2 pi/alat)
               b(1) = (  0.182360 -0.105286  0.000000 )
               b(2) = (  0.000000  0.210572  0.000000 )
               b(3) = (  0.000000  0.000000  0.040854 )

     PseudoPot. # 1 for Tc read from file:
     /u/if/mamunm/psp/gbrv1.5pbe/Tc.UPF
     MD5 check sum: 9eb49e5b028550b2339a02317eb7b844
     Pseudo is Ultrasoft + core correction, Zval = 15.0
     Generated by new atomic code, or converted to UPF format
     Using radial grid of  965 points,  6 beta functions with:
                l(1) =   0
                l(2) =   0
                l(3) =   1
                l(4) =   1
                l(5) =   2
                l(6) =   2
     Q(r) pseudized with  8 coefficients,  rinner =    1.300   1.300   1.300
                                                       1.300   1.300

     PseudoPot. # 2 for C  read from file:
     /u/if/mamunm/psp/gbrv1.5pbe/C.UPF
     MD5 check sum: d1aef80898a10debaa0f26306b886e00
     Pseudo is Ultrasoft + core correction, Zval =  4.0
     Generated by new atomic code, or converted to UPF format
     Using radial grid of  721 points,  4 beta functions with:
                l(1) =   0
                l(2) =   0
                l(3) =   1
                l(4) =   1
     Q(r) pseudized with  8 coefficients,  rinner =    1.100   1.100   1.100

     PseudoPot. # 3 for H  read from file:
     /u/if/mamunm/psp/gbrv1.5pbe/H.UPF
     MD5 check sum: 761ae9a214b05c3daf00ab9f6b793d6f
     Pseudo is Ultrasoft, Zval =  1.0
     Generated by new atomic code, or converted to UPF format
     Using radial grid of  615 points,  2 beta functions with:
                l(1) =   0
                l(2) =   0
     Q(r) pseudized with  8 coefficients,  rinner =    0.700

     vdW kernel table read from file vdW_kernel_table
     MD5 check sum: 095c7af220d748ca6e76c0b4c6cfb241

     atomic species   valence    mass     pseudopotential
        Tc1           15.00    97.90721     Tc( 1.00)
        C1             4.00    12.01100     C ( 1.00)
        H1             1.00     1.00800     H ( 1.00)

     No symmetry found

   Cartesian axes

     site n.     atom                  positions (alat units)
         1           Tc1 tau(   1) = (   1.3709117   0.7914962  10.0000000  )
         2           Tc1 tau(   2) = (   4.1127351   0.7914962  10.0000000  )
         3           Tc1 tau(   3) = (   2.7418234   3.1659850  10.0000000  )
         4           Tc1 tau(   4) = (   5.4836469   3.1659850  10.0000000  )
         5           Tc1 tau(   5) = (   5.4836469   1.5829925  12.2386895  )
         6           Tc1 tau(   6) = (   2.7418234   1.5829925  12.2386895  )
         7           Tc1 tau(   7) = (   6.8545586   3.9574812  12.2386895  )
         8           Tc1 tau(   8) = (   4.1127351   3.9574812  12.2386895  )
         9           Tc1 tau(   9) = (   0.0000000   0.0000000  14.4773789  )
        10           Tc1 tau(  10) = (   2.7418234   0.0000000  14.4773789  )
        11           Tc1 tau(  11) = (   1.3709117   2.3744887  14.4773789  )
        12           Tc1 tau(  12) = (   4.1127351   2.3744887  14.4773789  )
        13           C1  tau(  13) = (   1.3709117   0.0000000  16.1498789  )
        14           H1  tau(  14) = (   2.0009117   0.6300000  16.7798789  )
        15           H1  tau(  15) = (   3.4827351   4.1189775  16.7798789  )

     number of k points=    20  Fermi-Dirac smearing, width (Ry)=  0.0110
                       cart. coord. in units 2pi/alat
        k(    1) = (   0.0000000   0.0000000   0.0000000), wk =   0.0555556
        k(    2) = (   0.0000000   0.0350953   0.0000000), wk =   0.1111111
        k(    3) = (   0.0000000   0.0701905   0.0000000), wk =   0.1111111
        k(    4) = (   0.0000000  -0.1052858   0.0000000), wk =   0.0555556
        k(    5) = (   0.0303934  -0.0175476   0.0000000), wk =   0.1111111
        k(    6) = (   0.0303934   0.0175476   0.0000000), wk =   0.1111111
        k(    7) = (   0.0303934   0.0526429   0.0000000), wk =   0.1111111
        k(    8) = (   0.0303934  -0.1228335   0.0000000), wk =   0.1111111
        k(    9) = (   0.0303934  -0.0877382   0.0000000), wk =   0.1111111
        k(   10) = (   0.0303934  -0.0526429   0.0000000), wk =   0.1111111
        k(   11) = (   0.0607868  -0.0350953   0.0000000), wk =   0.1111111
        k(   12) = (   0.0607868   0.0000000   0.0000000), wk =   0.1111111
        k(   13) = (   0.0607868   0.0350953   0.0000000), wk =   0.1111111
        k(   14) = (   0.0607868  -0.1403811   0.0000000), wk =   0.1111111
        k(   15) = (   0.0607868  -0.1052858   0.0000000), wk =   0.1111111
        k(   16) = (   0.0607868  -0.0701905   0.0000000), wk =   0.1111111
        k(   17) = (  -0.0911802   0.0526429   0.0000000), wk =   0.0555556
        k(   18) = (  -0.0911802   0.0877382   0.0000000), wk =   0.1111111
        k(   19) = (  -0.0911802   0.1228335   0.0000000), wk =   0.1111111
        k(   20) = (  -0.0911802  -0.0526429   0.0000000), wk =   0.0555556

     Largest allocated arrays     est. size (Mb)     dimensions
     Largest temporary arrays     est. size (Mb)     dimensions

     Check: negative/imaginary core charge=   -0.000022    0.000000

     Initial potential from superposition of free atoms
     Check: negative starting charge=   -1.504814

     starting charge  173.99961, renormalised to  186.00000

     negative rho (up, down):  1.609E+00 0.000E+00

     *
     * You are using vdW-DF for exchange-correlation in this calculation.
     * Please cite the following three references that made this development
     * possible:
     *
     *   M. Dion, H. Rydberg, E. Schroder, D. C. Langreth, and
     *   B. I. Lundqvist, Phys. Rev. Lett. 92, 246401 (2004).
     *
     *   T. Thonhauser, V. R. Cooper, S. Li, A. Puzder, P. Hyldgaard, and
     *   D. C. Langreth, Phys. Rev. B 76, 125112 (2007).
     *
     *   G. Roman-Perez and J. M. Soler, Phys. Rev. Lett. 103, 096102 (2009).
     *
     *
     * If you are using vdW-DF2, please also cite:
     *
     *   K. Lee, E. D. Murray, L. Kong, B. I. Lundqvist, and
     *   D. C. Langreth, Phys. Rev. B 82, 081101(R) (2010).
     *
     *
     * If you are calculating the stress with vdW-DF, please also cite:
     *
     *   R. Sabatini, E. Kucukbenli, B. Kolb, T. Thonhauser, and
     *   S. de Gironcoli, J. Phys.: Condens. Matter 24, 424209 (2012).
     *

     Carrying out vdW-DF run using the following parameters:

     Nqs =      20    Nr_points =    1024   r_max =   100.000
     q_mesh =
               0.00001000     0.04494208     0.09755937     0.15916263
               0.23128650     0.31572767     0.41458969     0.53033537
               0.66584808     0.82450364     1.01025438     1.22772762
               1.48234092     1.78043706     2.12944203     2.53805004
               3.01644009     3.57652955     4.23227104     5.00000000

     Gradients computed in reciprocal space

     Adding external electric field

     Computed dipole along edir(3) :
        Dipole               -3.2222 Ry au,         -8.1901 Debye
        Dipole field         -0.0094 Ry au

        Potential amp.        0.8490 Ry
        Total length         45.0992 bohr

     Starting wfc are  162 randomized atomic wfcs

     Self-consistent Calculation

     iteration #  1     ecut=    36.75 Ry     beta=0.30
     Davidson diagonalization with overlap
     ethr =  1.00E-02,  avg # of iterations =  8.0

[...]

     total energy              =   -1895.30350687 Ry
     Harris-Foulkes estimate   =   -2114.05686638 Ry
     estimated scf accuracy    <     460.00483235 Ry

[...]

     End of self-consistent calculation

          k = 0.0000 0.0000 0.0000 ( 16073 PWs)   bands (ev):

   -64.4316 -64.2883 -64.2798 -64.2673 -64.2592 -64.1901 -64.1772 -64.1249
   -64.0924 -64.0616 -64.0538 -64.0476 -36.8702 -36.8621 -36.8555 -36.7781
   -36.7359 -36.7224 -36.7027 -36.5866 -36.5765 -36.5672 -36.2840 -36.2475
   -36.2178 -36.2044 -36.1720 -36.1470 -36.1401 -36.1324 -36.1286 -36.1107
   -35.9988 -35.9897 -35.9689 -35.9515 -35.9463 -35.9280 -35.9100 -35.8997
   -35.8963 -35.8459 -35.8433 -35.8378 -35.7420 -35.7283 -35.6491 -35.6439
    -9.5369  -3.7895  -3.6987  -2.8723  -2.3662  -2.3602  -2.3414  -2.2473
    -2.0767  -1.9727  -1.8850  -1.8223  -1.7477  -1.7390  -1.5279  -1.4452
    -1.3951  -0.8564  -0.3509  -0.2361   0.3232   0.5229   0.6131   0.8524
     0.8758   1.1358   1.1528   1.2120   1.3304   1.4557   1.5107   1.5498
     1.6164   1.6452   1.7023   1.7897   2.0936   2.1908   2.5654   2.8666
     3.1466   3.1780   3.1901   3.2454   3.5137   3.5483   3.6626   3.7683
     4.0145   4.0538   4.2013   4.6203   4.8074   4.8277   4.8592

[...]

          k =-0.0912 0.0526 0.0000 ( 16164 PWs)   bands (ev):

[...]

     the Fermi energy is     2.8477 ev

!    total energy              =   -2117.33845861 Ry
     Harris-Foulkes estimate   =   -2117.33846574 Ry
     estimated scf accuracy    <       0.00000186 Ry

     The total energy is the sum of the following terms:

     one-electron contribution =  -19042.02796003 Ry
     hartree contribution      =    9524.12924567 Ry
     xc contribution           =    -402.19515763 Ry
     ewald contribution        =    7802.84632958 Ry
     electric field correction =       0.00009434 Ry
     smearing contrib. (-TS)   =      -0.09101054 Ry

     convergence has been achieved in  29 iterations

 BEEF-vdW xc energy contributions
           1 :   -352.235930011774
           2 :    323.750258345252
           3 :   -273.157809983530
           4 :    210.671621125338
           5 :   -147.116248363391
           6 :    90.9727068012779
           7 :   -46.7510097372403
           8 :    14.8859246990162
           9 :    7.00012345607917
          10 :   -22.2358309553823
          11 :    33.4124328772780
          12 :   -41.5230879539986
          13 :    46.0478223637880
          14 :   -45.7775697071638
          15 :    39.8683760645868
          16 :   -28.6526545190052
          17 :    13.8653285708754
          18 :    1.75216176047877
          19 :   -15.2756439860393
          20 :    24.4669603516949
          21 :   -28.3465120710287
          22 :    27.2605571601057
          23 :   -22.4887144452190
          24 :    15.6142529668305
          25 :   -7.96761467782562
          26 :   0.358191219015907
          27 :    6.85048331367261
          28 :   -13.4497810690577
          29 :    19.0878374201334
          30 :   -23.1505069097344
          31 :   -33.6733437951427
          32 :   -24.7123673988728

     Forces acting on atoms (Ry/au):

     negative rho (up, down):  1.590E+00 0.000E+00
     atom    1 type  1   force =     0.00116664    0.00181913    0.02739399
     atom    2 type  1   force =    -0.00024267   -0.00274816    0.02884960
     atom    3 type  1   force =    -0.00216774    0.00026460    0.02940364
     atom    4 type  1   force =     0.00496759    0.00139528    0.03193488
     atom    5 type  1   force =     0.00056507   -0.00006099    0.00972696
     atom    6 type  1   force =    -0.00300023    0.00590574   -0.01144788
     atom    7 type  1   force =    -0.00975832   -0.01167015   -0.03691881
     atom    8 type  1   force =     0.00194183   -0.00255483    0.00749042
     atom    9 type  1   force =    -0.00823993    0.01987400    0.00474767
     atom   10 type  1   force =     0.01555429    0.00557039    0.00515299
     atom   11 type  1   force =    -0.00392557   -0.00209971   -0.02633651
     atom   12 type  1   force =     0.00307366   -0.01387184   -0.03180377
     atom   13 type  2   force =    -0.00087148   -0.00212173   -0.05266175
     atom   14 type  3   force =     0.00535012    0.00620313    0.00700882
     atom   15 type  3   force =    -0.00441326   -0.00590487    0.00745975

     Total force =     0.075607     Total SCF correction =     0.004378

     entering subroutine stress ...

     negative rho (up, down):  1.590E+00 0.000E+00
          total   stress  (Ry/bohr**3)                   (kbar)     P=  -33.56
  -0.00020660  -0.00000305   0.00000307        -30.39     -0.45      0.45
  -0.00000305  -0.00023518   0.00000558         -0.45    -34.60      0.82
   0.00000307   0.00000558  -0.00024256          0.45      0.82    -35.68

     BFGS Geometry Optimization

     number of scf cycles    =   1
     number of bfgs steps    =   0

     energy   new            =   -2117.3384586073 Ry

     new trust radius        =       0.0527116784 bohr
     new conv_thr            =       0.0000099958 Ry

ATOMIC_POSITIONS (crystal)
Tc1      0.166666667   0.166666667   0.408540475    0   0   0
Tc1      0.666666667   0.166666667   0.408540475    0   0   0
Tc1      0.166666667   0.666666667   0.408540475    0   0   0
Tc1      0.666666667   0.666666667   0.408540475    0   0   0
Tc1      0.833333333   0.333333333   0.500000000    0   0   0
Tc1      0.333333333   0.333333333   0.500000000    0   0   0
Tc1      0.833333333   0.833333333   0.500000000    0   0   0
Tc1      0.333333333   0.833333333   0.500000000    0   0   0
Tc1     -0.001902439   0.002214555   0.591562165
Tc1      0.501190651   0.000620707   0.591570928
Tc1     -0.000261836   0.499766030   0.590890155
Tc1      0.501069479   0.498454265   0.590771959
C1       0.250034113  -0.000236423   0.658649424
H1       0.298727665   0.133351350   0.685677493
H1       0.201346126   0.866681885   0.685687242

     Writing output data file calc.save
     Check: negative starting charge=   -1.504814
     NEW-OLD atomic charge density approx. for the potential

     Check: negative/imaginary core charge=   -0.000022    0.000000
     Check: negative starting charge=   -1.507577

[...]

     iteration #  1     ecut=    36.75 Ry     beta=0.30
     Davidson diagonalization with overlap
     c_bands:  1 eigenvalues not converged
     ethr =  1.00E-06,  avg # of iterations =  9.4

[...]

     energy   old            =   -2117.3384586073 Ry
     energy   new            =   -2117.3427274642 Ry

     CASE: energy  _new < energy  _old

[...]

     iteration #  1     ecut=    36.75 Ry     beta=0.30
     Davidson diagonalization with overlap
     c_bands:  1 eigenvalues not converged
     ethr =  1.00E-06,  avg # of iterations = 13.2

[...]

     Threshold (ethr) on eigenvalues was too large:
     Diagonalizing with lowered threshold

     Davidson diagonalization with overlap
     ethr =  6.25E-08,  avg # of iterations =  1.9

[...]

     Total force =     0.007720     Total SCF correction =     0.000808
     SCF correction compared to forces is large: reduce conv_thr to get better values

[...]

     Total force =     0.003362     Total SCF correction =     0.000274

[...]

     number of scf cycles    =  40
     number of bfgs steps    =  39

     energy   old            =   -2117.3922807722 Ry
     energy   new            =   -2117.3923150864 Ry

     CASE: energy  _new < energy  _old

     new trust radius        =       0.0099898955 bohr
     new conv_thr            =       0.0000001000 Ry

ATOMIC_POSITIONS (crystal)
Tc1      0.166666667   0.166666667   0.408540475    0   0   0
Tc1      0.666666667   0.166666667   0.408540475    0   0   0
Tc1      0.166666667   0.666666667   0.408540475    0   0   0
Tc1      0.666666667   0.666666667   0.408540475    0   0   0
Tc1      0.833333333   0.333333333   0.500000000    0   0   0
Tc1      0.333333333   0.333333333   0.500000000    0   0   0
Tc1      0.833333333   0.833333333   0.500000000    0   0   0
Tc1      0.333333333   0.833333333   0.500000000    0   0   0
Tc1     -0.012790136   0.006982046   0.589923551
Tc1      0.507346730   0.002845033   0.588509651
Tc1      0.000091541   0.499248520   0.585800647
Tc1      0.509584645   0.489585082   0.589008003
C1       0.325212916  -0.169833491   0.646327222
H1       0.414719598  -0.037834179   0.664726264
H1       0.296736142   0.734526415   0.683423731

     Writing output data file calc.save
     Check: negative starting charge=   -1.500592
     NEW-OLD atomic charge density approx. for the potential

     Check: negative/imaginary core charge=   -0.000022    0.000000
     Check: negative starting charge=   -1.500696

[...]

     Self-consistent Calculation

[...]

     total energy              =   -2117.39232729 Ry
     Harris-Foulkes estimate   =   -2117.39232723 Ry
     estimated scf accuracy    <       0.00000029 Ry

     iteration # 10     ecut=    36.75 Ry     beta=0.30
     Davidson diagonalization with overlap
     ethr =  1.56E-10,  avg # of iterations =  4.0

[...]

     negative rho (up, down):  1.587E+00 0.000E+00

     Adding external electric field

     Computed dipole along edir(3) :
        Dipole                0.2224 Ry au,          0.5653 Debye
        Dipole field          0.0006 Ry au

        Potential amp.       -0.0586 Ry
        Total length         45.0992 bohr

     End of self-consistent calculation

[...]

          k = 0.0608-0.0702 0.0000 ( 16203 PWs)   bands (ev):

[...]

          k =-0.0912-0.0526 0.0000 ( 16164 PWs)   bands (ev):

   -64.3410 -64.3191 -64.2612 -64.2225 -64.2156 -64.1401 -64.1093 -64.1060
   -64.0704 -64.0481 -64.0460 -64.0261 -36.7140 -36.6941 -36.6837 -36.6539
   -36.6115 -36.5880 -36.4619 -36.4554 -36.4311 -36.3841 -36.3831 -36.3667
   -36.3048 -36.1796 -36.1212 -36.1089 -36.1058 -36.1030 -36.0804 -36.0706
   -36.0569 -36.0506 -36.0335 -36.0160 -36.0141 -36.0028 -36.0007 -35.9862
   -35.8963 -35.8896 -35.8475 -35.8137 -35.7868 -35.7634 -35.7334 -35.7236
    -9.8307  -4.0444  -2.9751  -2.0740  -1.9835  -1.5042  -1.4135  -1.4036
    -1.2195  -1.1500  -1.1044  -0.8677  -0.8547  -0.7952  -0.7343  -0.5044
    -0.4417  -0.4089  -0.3841  -0.0868   0.1121   0.1866   0.2656   0.3531
     0.4049   0.7426   0.8476   0.9609   1.1346   1.1458   1.2632   1.4295
     1.4899   1.5047   1.5351   1.5922   1.6029   1.7023   1.7655   1.7786
     1.8894   2.0389   2.1851   2.6638   2.7058   2.7517   2.8020   2.9483
     3.1410   3.2595   3.3456   3.3559   3.4946   3.5518   3.7758

     the Fermi energy is     2.8732 ev

!    total energy              =   -2117.39232727 Ry
     Harris-Foulkes estimate   =   -2117.39232810 Ry
     estimated scf accuracy    <       0.00000007 Ry

     The total energy is the sum of the following terms:

     one-electron contribution =  -19348.65835117 Ry
     hartree contribution      =    9677.53940141 Ry
     xc contribution           =    -402.47343073 Ry
     ewald contribution        =    7956.28716533 Ry
     electric field correction =       0.00014451 Ry
     smearing contrib. (-TS)   =      -0.08725662 Ry

     convergence has been achieved in  10 iterations

 BEEF-vdW xc energy contributions
           1 :   -352.531309205890
           2 :    324.187840740067
           3 :   -273.774301311841
           4 :    211.372413743648
           5 :   -147.732169833923
           6 :    91.3513671485682
           7 :   -46.8316097524212
           8 :    14.7245284103645
           9 :    7.26131786199846
          10 :   -22.4368591774210
          11 :    33.4477089092994
          12 :   -41.3818036578190
          13 :    45.8080926621867
          14 :   -45.5621546734727
          15 :    39.7844682229257
          16 :   -28.7440886817001
          17 :    14.0935476931950
          18 :    1.49138259995698
          19 :   -15.1056335123162
          20 :    24.4738430559386
          21 :   -28.5377082492442
          22 :    27.5591298611550
          23 :   -22.7674198327671
          24 :    15.7537835853116
          25 :   -7.91201155703413
          26 :   0.141768265621408
          27 :    7.11848580390858
          28 :   -13.6353989319531
          29 :    19.0929832172693
          30 :   -22.9564341927863
          31 :   -33.6942009423626
          32 :   -24.7658592747046

     Forces acting on atoms (Ry/au):

     negative rho (up, down):  1.587E+00 0.000E+00
     atom    1 type  1   force =     0.00129931    0.00103268    0.02151262
     atom    2 type  1   force =    -0.00257484   -0.00053697    0.02156734
     atom    3 type  1   force =     0.00135884   -0.00004942    0.01885344
     atom    4 type  1   force =     0.00183983   -0.00049029    0.02217623
     atom    5 type  1   force =     0.00359111    0.00389231   -0.01756480
     atom    6 type  1   force =    -0.00125799   -0.00060807   -0.03124764
     atom    7 type  1   force =    -0.00268974   -0.00262423   -0.02852376
     atom    8 type  1   force =    -0.00054355   -0.00105757   -0.00664495
     atom    9 type  1   force =    -0.00008794    0.00056284    0.00061316
     atom   10 type  1   force =    -0.00061397    0.00030412   -0.00039869
     atom   11 type  1   force =    -0.00005295   -0.00071109    0.00009403
     atom   12 type  1   force =    -0.00004121   -0.00021351    0.00017426
     atom   13 type  2   force =    -0.00008502    0.00026508    0.00027471
     atom   14 type  3   force =     0.00057791   -0.00052769   -0.00076607
     atom   15 type  3   force =    -0.00071980    0.00076181   -0.00011987

     Total force =     0.002095     Total SCF correction =     0.000253
     SCF correction compared to forces is large: reduce conv_thr to get better values

     entering subroutine stress ...

     negative rho (up, down):  1.587E+00 0.000E+00
          total   stress  (Ry/bohr**3)                   (kbar)     P=  -19.43
  -0.00014735  -0.00000135  -0.00000284        -21.68     -0.20     -0.42
  -0.00000135  -0.00014968   0.00000097         -0.20    -22.02      0.14
  -0.00000284   0.00000097  -0.00009920         -0.42      0.14    -14.59

     bfgs converged in  41 scf cycles and  40 bfgs steps
     (criteria: energy <  1.0E+00, force <  1.9E-03)

     End of BFGS Geometry Optimization

     Final energy   =   -2117.3923272687 Ry
Begin final coordinates

ATOMIC_POSITIONS (crystal)
Tc1      0.166666667   0.166666667   0.408540475    0   0   0
Tc1      0.666666667   0.166666667   0.408540475    0   0   0
Tc1      0.166666667   0.666666667   0.408540475    0   0   0
Tc1      0.666666667   0.666666667   0.408540475    0   0   0
Tc1      0.833333333   0.333333333   0.500000000    0   0   0
Tc1      0.333333333   0.333333333   0.500000000    0   0   0
Tc1      0.833333333   0.833333333   0.500000000    0   0   0
Tc1      0.333333333   0.833333333   0.500000000    0   0   0
Tc1     -0.012790136   0.006982046   0.589923551
Tc1      0.507346730   0.002845033   0.588509651
Tc1      0.000091541   0.499248520   0.585800647
Tc1      0.509584645   0.489585082   0.589008003
C1       0.325212916  -0.169833491   0.646327222
H1       0.414719598  -0.037834179   0.664726264
H1       0.296736142   0.734526415   0.683423731
End final coordinates

     Writing output data file calc.save

     General routines

     Parallel routines

   This run was terminated on:  17: 9:46  23Apr2018

   JOB DONE.
Job  /afs/slac/g/suncat/bin/suncat-tsmpirun -x LD_LIBRARY_PATH -wdir /scratch/qe20369_WaW2u pw.x -npool 3 -in pw.inp

TID   HOST_NAME   COMMAND_LINE            STATUS            TERMINATION_TIME
00000 suncat2056 pw.x -npool 3 -i  Done                     04/23/2018 17:09:46
00001 suncat2056 pw.x -npool 3 -i  Done                     04/23/2018 17:09:46
00002 suncat2056 pw.x -npool 3 -i  Done                     04/23/2018 17:09:46
00003 suncat2056 pw.x -npool 3 -i  Done                     04/23/2018 17:09:46
00004 suncat2055 pw.x -npool 3 -i  Done                     04/23/2018 17:09:46
00005 suncat2055 pw.x -npool 3 -i  Done                     04/23/2018 17:09:46
00006 suncat2055 pw.x -npool 3 -i  Done                     04/23/2018 17:09:46
00007 suncat2055 pw.x -npool 3 -i  Done                     04/23/2018 17:09:46
00008 suncat2055 pw.x -npool 3 -i  Done                     04/23/2018 17:09:46
00009 suncat2055 pw.x -npool 3 -i  Done                     04/23/2018 17:09:46
00010 suncat2055 pw.x -npool 3 -i  Done                     04/23/2018 17:09:46
00011 suncat2055 pw.x -npool 3 -i  Done                     04/23/2018 17:09:46
00012 suncat2055 pw.x -npool 3 -i  Done                     04/23/2018 17:09:46
00013 suncat2055 pw.x -npool 3 -i  Done                     04/23/2018 17:09:46
00014 suncat2055 pw.x -npool 3 -i  Done                     04/23/2018 17:09:46
00015 suncat2055 pw.x -npool 3 -i  Done                     04/23/2018 17:09:46
00016 suncat2055 pw.x -npool 3 -i  Done                     04/23/2018 17:09:46
00017 suncat2055 pw.x -npool 3 -i  Done                     04/23/2018 17:09:46
00018 suncat2055 pw.x -npool 3 -i  Done                     04/23/2018 17:09:46
00019 suncat2055 pw.x -npool 3 -i  Done                     04/23/2018 17:09:46
00020 suncat2035 pw.x -npool 3 -i  Done                     04/23/2018 17:09:46
00021 suncat2035 pw.x -npool 3 -i  Done                     04/23/2018 17:09:46
00022 suncat2035 pw.x -npool 3 -i  Done                     04/23/2018 17:09:46
00023 suncat2035 pw.x -npool 3 -i  Done                     04/23/2018 17:09:46
00024 suncat2035 pw.x -npool 3 -i  Done                     04/23/2018 17:09:46
00025 suncat2035 pw.x -npool 3 -i  Done                     04/23/2018 17:09:46
00026 suncat2035 pw.x -npool 3 -i  Done                     04/23/2018 17:09:46
00027 suncat2035 pw.x -npool 3 -i  Done                     04/23/2018 17:09:46
00028 suncat2035 pw.x -npool 3 -i  Done                     04/23/2018 17:09:46
00029 suncat2035 pw.x -npool 3 -i  Done                     04/23/2018 17:09:46
00030 suncat2035 pw.x -npool 3 -i  Done                     04/23/2018 17:09:46
00031 suncat2035 pw.x -npool 3 -i  Done                     04/23/2018 17:09:46
00032 suncat2035 pw.x -npool 3 -i  Done                     04/23/2018 17:09:46
00033 suncat2035 pw.x -npool 3 -i  Done                     04/23/2018 17:09:46
00034 suncat2035 pw.x -npool 3 -i  Done                     04/23/2018 17:09:46
00035 suncat2035 pw.x -npool 3 -i  Done                     04/23/2018 17:09:46