     Program PWSCF v.5.1rc2 (svn rev. 11289) starts on 21Apr2018 at 21:31:28

     Current dimensions of program PWSCF are:
     Max number of different atomic species (ntypx) = 10
     Max number of k-points (npk) =  40000
     Max angular momentum in pseudopotentials (lmaxx) =  3
     Presently stress not available with electric field

     IMPORTANT: XC functional enforced from input :
     Exchange-correlation      = BEEF-VDW ( 1  4 27 13 2)
     Any further DFT definition will be discarded
     Please, verify this is what you really want

     Subspace diagonalization in iterative solution of the eigenvalue problem:
     a serial algorithm will be used

     bravais-lattice index     =            0
     lattice parameter (alat)  =       1.8897  a.u.
     unit-cell volume          =    4569.9960 (a.u.)^3
     number of atoms/cell      =           14
     number of atomic types    =            3
     number of electrons       =       199.00
     number of Kohn-Sham states=          109
     kinetic-energy cutoff     =      36.7493  Ry
     charge density cutoff     =     367.4932  Ry
     convergence threshold     =      1.0E-05
     mixing beta               =       0.3000
     number of iterations used =           10  plain     mixing
     Exchange-correlation      = BEEF-VDW ( 1  4 27 13 2)
     nstep                     =           50

     celldm(1)=   1.889726  celldm(2)=   0.000000  celldm(3)=   0.000000
     celldm(4)=   0.000000  celldm(5)=   0.000000  celldm(6)=   0.000000

     crystal axes: (cart. coord. in units of alat)
               a(1) = (   5.637663   0.000000   0.000000 )
               a(2) = (   2.818831   4.882359   0.000000 )
               a(3) = (   0.000000   0.000000  24.603132 )

     reciprocal axes: (cart. coord. in units 2 pi/alat)
               b(1) = (  0.177378 -0.102410  0.000000 )
               b(2) = (  0.000000  0.204819  0.000000 )
               b(3) = (  0.000000  0.000000  0.040645 )

     PseudoPot. # 1 for Pd read from file:
     /u/if/mamunm/psp/gbrv1.5pbe/Pd.UPF
     MD5 check sum: 2d733d2bc2cbfd217af676df1668a4bc
     Pseudo is Ultrasoft + core correction, Zval = 16.0
     Generated by new atomic code, or converted to UPF format
     Using radial grid of  887 points,  6 beta functions with:
                l(1) =   0
                l(2) =   0
                l(3) =   1
                l(4) =   1
                l(5) =   2
                l(6) =   2
     Q(r) pseudized with  8 coefficients,  rinner =    1.130   1.130   1.130
                                                       1.130   1.130

     PseudoPot. # 2 for O  read from file:
     /u/if/mamunm/psp/gbrv1.5pbe/O.UPF
     MD5 check sum: 734c27235a0248c51dbae37a1fbe46ec
     Pseudo is Ultrasoft + core correction, Zval =  6.0
     Generated by new atomic code, or converted to UPF format
     Using radial grid of  737 points,  5 beta functions with:
                l(1) =   0
                l(2) =   0
                l(3) =   1
                l(4) =   1
                l(5) =   2
     Q(r) pseudized with  8 coefficients,  rinner =    0.900   0.900   0.900
                                                       0.900   0.900

     PseudoPot. # 3 for H  read from file:
     /u/if/mamunm/psp/gbrv1.5pbe/H.UPF
     MD5 check sum: 761ae9a214b05c3daf00ab9f6b793d6f
     Pseudo is Ultrasoft, Zval =  1.0
     Generated by new atomic code, or converted to UPF format
     Using radial grid of  615 points,  2 beta functions with:
                l(1) =   0
                l(2) =   0
     Q(r) pseudized with  8 coefficients,  rinner =    0.700

     vdW kernel table read from file vdW_kernel_table
     MD5 check sum: 095c7af220d748ca6e76c0b4c6cfb241

     atomic species   valence    mass     pseudopotential
        Pd1           16.00   106.42000     Pd( 1.00)
        O1             6.00    15.99900     O ( 1.00)
        H1             1.00     1.00800     H ( 1.00)

     No symmetry found

   Cartesian axes

     site n.     atom                  positions (alat units)
         1           Pd1 tau(   1) = (   1.4094157   0.8137265  10.0000000  )
         2           Pd1 tau(   2) = (   4.2282471   0.8137265  10.0000000  )
         3           Pd1 tau(   3) = (   2.8188314   3.2549061  10.0000000  )
         4           Pd1 tau(   4) = (   5.6376627   3.2549061  10.0000000  )
         5           Pd1 tau(   5) = (   5.6376627   1.6274531  12.3015662  )
         6           Pd1 tau(   6) = (   2.8188314   1.6274531  12.3015662  )
         7           Pd1 tau(   7) = (   7.0470784   4.0686326  12.3015662  )
         8           Pd1 tau(   8) = (   4.2282471   4.0686326  12.3015662  )
         9           Pd1 tau(   9) = (   0.0000000   0.0000000  14.6031324  )
        10           Pd1 tau(  10) = (   2.8188314   0.0000000  14.6031324  )
        11           Pd1 tau(  11) = (   1.4094157   2.4411796  14.6031324  )
        12           Pd1 tau(  12) = (   4.2282471   2.4411796  14.6031324  )
        13           O1  tau(  13) = (   2.8188314   1.6274531  15.9356324  )
        14           H1  tau(  14) = (   2.8188314   1.6274531  16.8856324  )

     number of k points=    20  Fermi-Dirac smearing, width (Ry)=  0.0110
                       cart. coord. in units 2pi/alat
        k(    1) = (   0.0000000   0.0000000   0.0000000), wk =   0.0555556
        k(    2) = (   0.0000000   0.0341365   0.0000000), wk =   0.1111111
        k(    3) = (   0.0000000   0.0682730   0.0000000), wk =   0.1111111
        k(    4) = (   0.0000000  -0.1024095   0.0000000), wk =   0.0555556
        k(    5) = (   0.0295631  -0.0170683   0.0000000), wk =   0.1111111
        k(    6) = (   0.0295631   0.0170683   0.0000000), wk =   0.1111111
        k(    7) = (   0.0295631   0.0512048   0.0000000), wk =   0.1111111
        k(    8) = (   0.0295631  -0.1194778   0.0000000), wk =   0.1111111
        k(    9) = (   0.0295631  -0.0853413   0.0000000), wk =   0.1111111
        k(   10) = (   0.0295631  -0.0512048   0.0000000), wk =   0.1111111
        k(   11) = (   0.0591262  -0.0341365   0.0000000), wk =   0.1111111
        k(   12) = (   0.0591262  -0.0000000   0.0000000), wk =   0.1111111
        k(   13) = (   0.0591262   0.0341365   0.0000000), wk =   0.1111111
        k(   14) = (   0.0591262  -0.1365460   0.0000000), wk =   0.1111111
        k(   15) = (   0.0591262  -0.1024095   0.0000000), wk =   0.1111111
        k(   16) = (   0.0591262  -0.0682730   0.0000000), wk =   0.1111111
        k(   17) = (  -0.0886892   0.0512048   0.0000000), wk =   0.0555556
        k(   18) = (  -0.0886892   0.0853413   0.0000000), wk =   0.1111111
        k(   19) = (  -0.0886892   0.1194778   0.0000000), wk =   0.1111111
        k(   20) = (  -0.0886892  -0.0512048   0.0000000), wk =   0.0555556

     Largest allocated arrays     est. size (Mb)     dimensions
     Largest temporary arrays     est. size (Mb)     dimensions

     Initial potential from superposition of free atoms
     Check: negative starting charge=   -0.904166

     starting charge  192.99991, renormalised to  199.00000

     negative rho (up, down):  9.323E-01 0.000E+00

     *
     * You are using vdW-DF for exchange-correlation in this calculation.
     * Please cite the following three references that made this development
     * possible:
     *
     *   M. Dion, H. Rydberg, E. Schroder, D. C. Langreth, and
     *   B. I. Lundqvist, Phys. Rev. Lett. 92, 246401 (2004).
     *
     *   T. Thonhauser, V. R. Cooper, S. Li, A. Puzder, P. Hyldgaard, and
     *   D. C. Langreth, Phys. Rev. B 76, 125112 (2007).
     *
     *   G. Roman-Perez and J. M. Soler, Phys. Rev. Lett. 103, 096102 (2009).
     *
     *
     * If you are using vdW-DF2, please also cite:
     *
     *   K. Lee, E. D. Murray, L. Kong, B. I. Lundqvist, and
     *   D. C. Langreth, Phys. Rev. B 82, 081101(R) (2010).
     *
     *
     * If you are calculating the stress with vdW-DF, please also cite:
     *
     *   R. Sabatini, E. Kucukbenli, B. Kolb, T. Thonhauser, and
     *   S. de Gironcoli, J. Phys.: Condens. Matter 24, 424209 (2012).
     *

     Carrying out vdW-DF run using the following parameters:

     Nqs =      20    Nr_points =    1024   r_max =   100.000
     q_mesh =
               0.00001000     0.04494208     0.09755937     0.15916263
               0.23128650     0.31572767     0.41458969     0.53033537
               0.66584808     0.82450364     1.01025438     1.22772762
               1.48234092     1.78043706     2.12944203     2.53805004
               3.01644009     3.57652955     4.23227104     5.00000000

     Gradients computed in reciprocal space

     Adding external electric field

     Computed dipole along edir(3) :
        Dipole               -1.5502 Ry au,         -3.9402 Debye
        Dipole field         -0.0043 Ry au

        Potential amp.        0.3865 Ry
        Total length         45.3309 bohr

     Starting wfc are  149 randomized atomic wfcs

     Self-consistent Calculation

     iteration #  1     ecut=    36.75 Ry     beta=0.30
     Davidson diagonalization with overlap
     ethr =  1.00E-02,  avg # of iterations =  4.3

[...]

     total energy              =   -2368.72817071 Ry
     Harris-Foulkes estimate   =   -2433.37777062 Ry
     estimated scf accuracy    <     136.16717602 Ry

[...]

     End of self-consistent calculation

          k = 0.0000 0.0000 0.0000 ( 17231 PWs)   bands (ev):

   -48.5584 -48.4413 -48.4411 -48.3985 -48.3822 -48.3820 -48.3186 -48.3185
   -48.3093 -48.2631 -48.2628 -48.2440 -48.2399 -48.2006 -48.1990 -48.1987
   -48.1549 -48.1389 -48.1388 -48.1210 -48.1209 -48.1076 -48.1074 -48.1026
   -47.9592 -47.9591 -47.9420 -47.9015 -47.9014 -47.8940 -47.8939 -47.8400
   -47.7950 -47.7814 -47.7810 -47.7402 -19.2029  -7.5318  -4.1422  -3.9562
    -3.9562  -3.0025  -2.9064  -2.8907  -2.8907  -2.7956  -2.6453  -2.6452
    -2.6124  -2.5663  -2.4497  -2.4496  -2.3016  -2.3016  -2.1611  -1.3736
    -1.3735  -1.2567  -1.1181  -1.1181  -1.0223  -0.8797  -0.8797  -0.8488
    -0.7767  -0.7767  -0.6587  -0.5956  -0.5956  -0.5270  -0.5270  -0.4125
     0.0385   0.0386   0.0516   0.3043   0.4351   0.4351   0.5435   0.5436
     0.6540   0.6541   0.8507   0.8507   0.8750   1.1865   1.2047   1.2048
     1.2885   1.2923   1.2923   1.4206   1.4459   1.4459   1.5296   1.5733
     1.5733   1.6662   1.6663   1.7406   1.7407   1.7438   1.9194   3.0976
     3.8151   3.8151   4.1271   4.7089   5.0935

[...]

          k =-0.0887 0.0512 0.0000 ( 17240 PWs)   bands (ev):

[...]

     the Fermi energy is     1.5177 ev

!    total energy              =   -2431.12859407 Ry
     Harris-Foulkes estimate   =   -2431.12861409 Ry
     estimated scf accuracy    <       0.00000383 Ry

     The total energy is the sum of the following terms:

     one-electron contribution =  -20862.16948167 Ry
     hartree contribution      =   10486.66951668 Ry
     xc contribution           =    -398.61433065 Ry
     ewald contribution        =    8343.10762973 Ry
     electric field correction =       0.00037426 Ry
     smearing contrib. (-TS)   =      -0.12230241 Ry

     convergence has been achieved in  22 iterations

 BEEF-vdW xc energy contributions
           1 :   -346.909893168532
           2 :    316.725655468044
           3 :   -265.313901444558
           4 :    206.577446254315
           5 :   -153.894053214293
           6 :    115.726585679007
           7 :   -93.8313268216435
           8 :    84.3226568136220
           9 :   -80.6985943454378
          10 :    77.2074012848306
          11 :   -71.0408522524647
          12 :    62.6137337034997
          13 :   -54.2333012313459
          14 :    48.1778279142756
          15 :   -45.3033580007665
          16 :    44.7830241777975
          17 :   -44.8600399815153
          18 :    43.9809392904968
          19 :   -41.6059510756392
          20 :    38.2942502393847
          21 :   -35.1459505488318
          22 :    33.0337116015056
          23 :   -32.1077080891033
          24 :    31.8157190838508
          25 :   -31.3456230704947
          26 :    30.1602119135621
          27 :   -28.2890790991746
          28 :    26.2323575503997
          29 :   -24.5848436389627
          30 :    23.6416782821331
          31 :   -33.8907733560412
          32 :   -24.9765075820665

     Forces acting on atoms (Ry/au):

     negative rho (up, down):  9.420E-01 0.000E+00
     atom    1 type  1   force =    -0.00053723   -0.00031607   -0.00084316
     atom    2 type  1   force =     0.00052812   -0.00028782   -0.00087746
     atom    3 type  1   force =     0.00001534    0.00061184   -0.00084523
     atom    4 type  1   force =    -0.00001771   -0.00000289    0.00207206
     atom    5 type  1   force =    -0.00001321    0.00403099    0.00273268
     atom    6 type  1   force =     0.00000680   -0.00002881   -0.01451633
     atom    7 type  1   force =    -0.00350859   -0.00198780    0.00276028
     atom    8 type  1   force =     0.00351764   -0.00200521    0.00275686
     atom    9 type  1   force =     0.00001833    0.00000959   -0.00665872
     atom   10 type  1   force =    -0.00002848   -0.03962189   -0.01889779
     atom   11 type  1   force =    -0.03433487    0.01979739   -0.01889129
     atom   12 type  1   force =     0.03431688    0.01982051   -0.01892302
     atom   13 type  2   force =     0.00003801   -0.00001833    0.01522934
     atom   14 type  3   force =    -0.00000103   -0.00000150    0.05490175

     Total force =     0.095256     Total SCF correction =     0.005544

     entering subroutine stress ...

     negative rho (up, down):  9.420E-01 0.000E+00
          total   stress  (Ry/bohr**3)                   (kbar)     P=   -0.74
  -0.00003238   0.00000001  -0.00000002         -4.76      0.00     -0.00
   0.00000001  -0.00003237   0.00000001          0.00     -4.76      0.00
  -0.00000002   0.00000001   0.00004965         -0.00      0.00      7.30

     BFGS Geometry Optimization

     number of scf cycles    =   1
     number of bfgs steps    =   0

     energy   new            =   -2431.1285940727 Ry

     new trust radius        =       0.0549017478 bohr
     new conv_thr            =       0.0000099958 Ry

ATOMIC_POSITIONS (crystal)
Pd1      0.166666667   0.166666667   0.406452311    0   0   0
Pd1      0.666666667   0.166666667   0.406452311    0   0   0
Pd1      0.166666667   0.666666667   0.406452311    0   0   0
Pd1      0.666666667   0.666666667   0.406452311    0   0   0
Pd1      0.833333333   0.333333333   0.500000000    0   0   0
Pd1      0.333333333   0.333333333   0.500000000    0   0   0
Pd1      0.833333333   0.833333333   0.500000000    0   0   0
Pd1      0.333333333   0.833333333   0.500000000    0   0   0
Pd1      0.000001200   0.000001040   0.593404470
Pd1      0.502144547  -0.004294441   0.593141226
Pd1     -0.004295706   0.502145751   0.593141365
Pd1      0.502147014   0.502148256   0.593140683
O1       0.333337894   0.333331347   0.648035020
H1       0.333333318   0.333333170   0.687501285

     Writing output data file calc.save
     Check: negative starting charge=   -0.904166
     NEW-OLD atomic charge density approx. for the potential
     Check: negative starting charge=   -0.904399

[...]

     energy   old            =   -2431.1285940727 Ry
     energy   new            =   -2431.1353462240 Ry

     CASE: energy  _new < energy  _old

[...]

     WARNING: bfgs curvature condition failed, Theta= 0.978
     new trust radius        =       0.0146392646 bohr
     new conv_thr            =       0.0000001000 Ry

[...]

     Threshold (ethr) on eigenvalues was too large:
     Diagonalizing with lowered threshold

     Davidson diagonalization with overlap
     ethr =  8.59E-08,  avg # of iterations =  1.0

[...]

     Total force =     0.004957     Total SCF correction =     0.000115

[...]

     number of scf cycles    =  13
     number of bfgs steps    =  12

     energy   old            =   -2431.1443124001 Ry
     energy   new            =   -2431.1444798629 Ry

     CASE: energy  _new < energy  _old

     new trust radius        =       0.0181971750 bohr
     new conv_thr            =       0.0000001000 Ry

ATOMIC_POSITIONS (crystal)
Pd1      0.166666667   0.166666667   0.406452311    0   0   0
Pd1      0.666666667   0.166666667   0.406452311    0   0   0
Pd1      0.166666667   0.666666667   0.406452311    0   0   0
Pd1      0.666666667   0.666666667   0.406452311    0   0   0
Pd1      0.833333333   0.333333333   0.500000000    0   0   0
Pd1      0.333333333   0.333333333   0.500000000    0   0   0
Pd1      0.833333333   0.833333333   0.500000000    0   0   0
Pd1      0.333333333   0.833333333   0.500000000    0   0   0
Pd1     -0.000013373  -0.000002736   0.591799558
Pd1      0.502381796  -0.004736304   0.594005607
Pd1     -0.004736442   0.502376788   0.594006059
Pd1      0.502366739   0.502356247   0.594005852
O1       0.333338292   0.333327830   0.656462866
H1       0.333332164   0.333326502   0.696062223

     Writing output data file calc.save
     Check: negative starting charge=   -0.905902
     NEW-OLD atomic charge density approx. for the potential
     Check: negative starting charge=   -0.906830

[...]

     Self-consistent Calculation

[...]

     total energy              =   -2431.14455811 Ry
     Harris-Foulkes estimate   =   -2431.14455785 Ry
     estimated scf accuracy    <       0.00000026 Ry

     iteration # 12     ecut=    36.75 Ry     beta=0.30
     Davidson diagonalization with overlap
     ethr =  1.31E-10,  avg # of iterations =  2.0

[...]

     negative rho (up, down):  9.442E-01 0.000E+00

     Adding external electric field

     Computed dipole along edir(3) :
        Dipole                0.2680 Ry au,          0.6812 Debye
        Dipole field          0.0007 Ry au

        Potential amp.       -0.0668 Ry
        Total length         45.3309 bohr

     End of self-consistent calculation

[...]

          k = 0.0591-0.0683 0.0000 ( 17183 PWs)   bands (ev):

[...]

          k =-0.0887-0.0512 0.0000 ( 17240 PWs)   bands (ev):

   -48.5518 -48.5263 -48.5134 -48.4979 -48.4899 -48.4692 -48.4549 -48.4533
   -48.4505 -48.4144 -48.3862 -48.3834 -48.3834 -48.3781 -48.3739 -48.3726
   -48.3334 -48.3237 -48.2630 -48.2473 -48.2412 -48.2211 -48.2047 -48.2033
   -48.1746 -48.1669 -48.1609 -48.1405 -48.1152 -48.1044 -48.0900 -48.0108
   -47.9696 -47.9634 -47.9584 -47.9574 -18.1029  -6.3266  -3.2492  -2.9958
    -2.7648  -2.7458  -2.5074  -2.4480  -2.3588  -2.3173  -2.2613  -2.2024
    -2.1418  -2.0521  -2.0056  -2.0016  -1.9068  -1.8431  -1.7773  -1.6556
    -1.4677  -1.4249  -1.4059  -1.3725  -1.3298  -1.2490  -1.1240  -1.1002
    -0.8672  -0.8327  -0.7604  -0.6985  -0.6915  -0.6254  -0.5873  -0.5635
    -0.5481  -0.5190  -0.4671  -0.4205  -0.4002  -0.3832  -0.2676  -0.1195
    -0.0903  -0.0238   0.0138   0.1386   0.1461   0.1709   0.2301   0.2877
     0.3055   0.3439   0.4472   0.5464   0.6120   0.6766   0.7455   0.9067
     1.1224   1.1308   1.1775   1.2391   1.3897   1.4531   1.5437   1.8191
     3.7770   3.8762   3.8789   4.1182   5.0460

     the Fermi energy is     1.3465 ev

!    total energy              =   -2431.14455806 Ry
     Harris-Foulkes estimate   =   -2431.14455465 Ry
     estimated scf accuracy    <       0.00000008 Ry

     The total energy is the sum of the following terms:

     one-electron contribution =  -20771.44242542 Ry
     hartree contribution      =   10440.61241139 Ry
     xc contribution           =    -398.49754918 Ry
     ewald contribution        =    8298.30818533 Ry
     electric field correction =       0.00019752 Ry
     smearing contrib. (-TS)   =      -0.12537770 Ry

     convergence has been achieved in  12 iterations

 BEEF-vdW xc energy contributions
           1 :   -346.781735864635
           2 :    316.534286938951
           3 :   -265.063982134174
           4 :    206.341957600076
           5 :   -153.759746119156
           6 :    115.734234707027
           7 :   -93.9501894756453
           8 :    84.4718591301001
           9 :   -80.7966433464436
          10 :    77.2165900266779
          11 :   -70.9803712357043
          12 :    62.5376407869857
          13 :   -54.1921850790720
          14 :    48.1900881595715
          15 :   -45.3513713259825
          16 :    44.8329476400514
          17 :   -44.8889378608030
          18 :    43.9907287954576
          19 :   -41.6159346126964
          20 :    38.3216872138645
          21 :   -35.1910189001331
          22 :    33.0798809818334
          23 :   -32.1360456712367
          24 :    31.8207176817101
          25 :   -31.3397342230998
          26 :    30.1643722646686
          27 :   -28.3169450289921
          28 :    26.2802712297542
          29 :   -24.6352974024964
          30 :    23.6766588326366
          31 :   -33.8828239305678
          32 :   -24.9560454042123

     Forces acting on atoms (Ry/au):

     negative rho (up, down):  9.442E-01 0.000E+00
     atom    1 type  1   force =    -0.00059274   -0.00034258   -0.00042746
     atom    2 type  1   force =     0.00059181   -0.00034017   -0.00042889
     atom    3 type  1   force =     0.00000165    0.00068312   -0.00042875
     atom    4 type  1   force =    -0.00000213   -0.00000069    0.00223229
     atom    5 type  1   force =    -0.00000033    0.00553271    0.00155108
     atom    6 type  1   force =    -0.00000163   -0.00000043   -0.00682442
     atom    7 type  1   force =    -0.00479249   -0.00276768    0.00154006
     atom    8 type  1   force =     0.00478991   -0.00276657    0.00155551
     atom    9 type  1   force =     0.00003792    0.00000601    0.00098785
     atom   10 type  1   force =    -0.00003726    0.00014982    0.00055310
     atom   11 type  1   force =     0.00012437   -0.00010091    0.00055423
     atom   12 type  1   force =    -0.00011675   -0.00005338    0.00054642
     atom   13 type  2   force =    -0.00000399    0.00000063   -0.00173834
     atom   14 type  3   force =     0.00000166    0.00000011    0.00032732

     Total force =     0.002255     Total SCF correction =     0.001389
     SCF correction compared to forces is large: reduce conv_thr to get better values

     entering subroutine stress ...

     negative rho (up, down):  9.442E-01 0.000E+00
          total   stress  (Ry/bohr**3)                   (kbar)     P=   -7.17
  -0.00006441   0.00000000  -0.00000000         -9.47      0.00     -0.00
   0.00000000  -0.00006441   0.00000000          0.00     -9.47      0.00
  -0.00000000   0.00000000  -0.00001740         -0.00      0.00     -2.56

     bfgs converged in  14 scf cycles and  13 bfgs steps
     (criteria: energy <  1.0E+00, force <  1.9E-03)

     End of BFGS Geometry Optimization

     Final energy   =   -2431.1445580627 Ry
Begin final coordinates

ATOMIC_POSITIONS (crystal)
Pd1      0.166666667   0.166666667   0.406452311    0   0   0
Pd1      0.666666667   0.166666667   0.406452311    0   0   0
Pd1      0.166666667   0.666666667   0.406452311    0   0   0
Pd1      0.666666667   0.666666667   0.406452311    0   0   0
Pd1      0.833333333   0.333333333   0.500000000    0   0   0
Pd1      0.333333333   0.333333333   0.500000000    0   0   0
Pd1      0.833333333   0.833333333   0.500000000    0   0   0
Pd1      0.333333333   0.833333333   0.500000000    0   0   0
Pd1     -0.000013373  -0.000002736   0.591799558
Pd1      0.502381796  -0.004736304   0.594005607
Pd1     -0.004736442   0.502376788   0.594006059
Pd1      0.502366739   0.502356247   0.594005852
O1       0.333338292   0.333327830   0.656462866
H1       0.333332164   0.333326502   0.696062223
End final coordinates

     Writing output data file calc.save

     General routines

     Parallel routines

   This run was terminated on:  23: 5:36  21Apr2018

   JOB DONE.
Job  /afs/slac/g/suncat/bin/suncat-tsmpirun -x LD_LIBRARY_PATH -wdir /scratch/qe406558_WtDDS pw.x -npool 4 -in pw.inp

TID   HOST_NAME   COMMAND_LINE            STATUS            TERMINATION_TIME
00000 suncat0052 pw.x -npool 4 -i  Done                     04/21/2018 23:05:36
00001 suncat0052 pw.x -npool 4 -i  Done                     04/21/2018 23:05:36
00002 suncat0052 pw.x -npool 4 -i  Done                     04/21/2018 23:05:36
00003 suncat0052 pw.x -npool 4 -i  Done                     04/21/2018 23:05:36
00004 suncat0052 pw.x -npool 4 -i  Done                     04/21/2018 23:05:36
00005 suncat0052 pw.x -npool 4 -i  Done                     04/21/2018 23:05:36
00006 suncat0052 pw.x -npool 4 -i  Done                     04/21/2018 23:05:36
00007 suncat0052 pw.x -npool 4 -i  Done                     04/21/2018 23:05:36
00008 suncat0016 pw.x -npool 4 -i  Done                     04/21/2018 23:05:36
00009 suncat0016 pw.x -npool 4 -i  Done                     04/21/2018 23:05:36
00010 suncat0016 pw.x -npool 4 -i  Done                     04/21/2018 23:05:36
00011 suncat0016 pw.x -npool 4 -i  Done                     04/21/2018 23:05:36
00012 suncat0016 pw.x -npool 4 -i  Done                     04/21/2018 23:05:36
00013 suncat0016 pw.x -npool 4 -i  Done                     04/21/2018 23:05:36
00014 suncat0016 pw.x -npool 4 -i  Done                     04/21/2018 23:05:36
00015 suncat0016 pw.x -npool 4 -i  Done                     04/21/2018 23:05:36
00016 suncat0135 pw.x -npool 4 -i  Done                     04/21/2018 23:05:36
00017 suncat0135 pw.x -npool 4 -i  Done                     04/21/2018 23:05:36
00018 suncat0135 pw.x -npool 4 -i  Done                     04/21/2018 23:05:36
00019 suncat0135 pw.x -npool 4 -i  Done                     04/21/2018 23:05:36
00020 suncat0135 pw.x -npool 4 -i  Done                     04/21/2018 23:05:36
00021 suncat0135 pw.x -npool 4 -i  Done                     04/21/2018 23:05:36
00022 suncat0135 pw.x -npool 4 -i  Done                     04/21/2018 23:05:36
00023 suncat0135 pw.x -npool 4 -i  Done                     04/21/2018 23:05:36
00024 suncat0132 pw.x -npool 4 -i  Done                     04/21/2018 23:05:36
00025 suncat0132 pw.x -npool 4 -i  Done                     04/21/2018 23:05:36
00026 suncat0132 pw.x -npool 4 -i  Done                     04/21/2018 23:05:36
00027 suncat0132 pw.x -npool 4 -i  Done                     04/21/2018 23:05:36
00028 suncat0132 pw.x -npool 4 -i  Done                     04/21/2018 23:05:36
00029 suncat0132 pw.x -npool 4 -i  Done                     04/21/2018 23:05:36
00030 suncat0132 pw.x -npool 4 -i  Done                     04/21/2018 23:05:36
00031 suncat0132 pw.x -npool 4 -i  Done                     04/21/2018 23:05:36