     Program PWSCF v.5.1rc2 (svn rev. 11289) starts on  3May2018 at  6:39:51

     Current dimensions of program PWSCF are:
     Max number of different atomic species (ntypx) = 10
     Max number of k-points (npk) =  40000
     Max angular momentum in pseudopotentials (lmaxx) =  3
     Presently stress not available with electric field

     IMPORTANT: XC functional enforced from input :
     Exchange-correlation      = BEEF-VDW ( 1  4 27 13 2)
     Any further DFT definition will be discarded
     Please, verify this is what you really want

     Subspace diagonalization in iterative solution of the eigenvalue problem:
     a serial algorithm will be used

     bravais-lattice index     =            0
     lattice parameter (alat)  =       1.8897  a.u.
     unit-cell volume          =    5185.0501 (a.u.)^3
     number of atoms/cell      =           13
     number of atomic types    =            2
     number of electrons       =       160.00
     number of Kohn-Sham states=           90
     kinetic-energy cutoff     =      36.7493  Ry
     charge density cutoff     =     367.4932  Ry
     convergence threshold     =      1.0E-05
     mixing beta               =       0.3000
     number of iterations used =           10  plain     mixing
     Exchange-correlation      = BEEF-VDW ( 1  4 27 13 2)
     nstep                     =           50

     celldm(1)=   1.889726  celldm(2)=   0.000000  celldm(3)=   0.000000
     celldm(4)=   0.000000  celldm(5)=   0.000000  celldm(6)=   0.000000

     crystal axes: (cart. coord. in units of alat)
               a(1) = (   5.972022   0.000000   0.000000 )
               a(2) = (   2.986011   5.171923   0.000000 )
               a(3) = (   0.000000   0.000000  24.876136 )

     reciprocal axes: (cart. coord. in units 2 pi/alat)
               b(1) = (  0.167447 -0.096676  0.000000 )
               b(2) = (  0.000000  0.193352  0.000000 )
               b(3) = (  0.000000  0.000000  0.040199 )

     PseudoPot. # 1 for Ta read from file:
     /u/if/mamunm/psp/gbrv1.5pbe/Ta.UPF
     MD5 check sum: f8bbe9446314a3b8ea5d9f3e3836c939
     Pseudo is Ultrasoft + core correction, Zval = 13.0
     Generated by new atomic code, or converted to UPF format
     Using radial grid of  921 points,  7 beta functions with:
                l(1) =   0
                l(2) =   0
                l(3) =   1
                l(4) =   1
                l(5) =   2
                l(6) =   2
                l(7) =   3
     Q(r) pseudized with  6 coefficients,  rinner =    1.300   1.300   1.300
                                                       1.300   1.300   1.300
                                                       1.300

     PseudoPot. # 2 for C  read from file:
     /u/if/mamunm/psp/gbrv1.5pbe/C.UPF
     MD5 check sum: d1aef80898a10debaa0f26306b886e00
     Pseudo is Ultrasoft + core correction, Zval =  4.0
     Generated by new atomic code, or converted to UPF format
     Using radial grid of  721 points,  4 beta functions with:
                l(1) =   0
                l(2) =   0
                l(3) =   1
                l(4) =   1
     Q(r) pseudized with  8 coefficients,  rinner =    1.100   1.100   1.100

     vdW kernel table read from file vdW_kernel_table
     MD5 check sum: 095c7af220d748ca6e76c0b4c6cfb241

     atomic species   valence    mass     pseudopotential
        Ta1           13.00   180.94788     Ta( 1.00)
        C1             4.00    12.01100     C ( 1.00)

     No symmetry found

   Cartesian axes

     site n.     atom                  positions (alat units)
         1           Ta1 tau(   1) = (   1.4930055   0.8619871  10.0000000  )
         2           Ta1 tau(   2) = (   4.4790165   0.8619871  10.0000000  )
         3           Ta1 tau(   3) = (   2.9860110   3.4479485  10.0000000  )
         4           Ta1 tau(   4) = (   5.9720221   3.4479485  10.0000000  )
         5           Ta1 tau(   5) = (   5.9720221   1.7239743  12.4380678  )
         6           Ta1 tau(   6) = (   2.9860110   1.7239743  12.4380678  )
         7           Ta1 tau(   7) = (   7.4650276   4.3099357  12.4380678  )
         8           Ta1 tau(   8) = (   4.4790165   4.3099357  12.4380678  )
         9           Ta1 tau(   9) = (   0.0000000   0.0000000  14.8761356  )
        10           Ta1 tau(  10) = (   2.9860110   0.0000000  14.8761356  )
        11           Ta1 tau(  11) = (   1.4930055   2.5859614  14.8761356  )
        12           Ta1 tau(  12) = (   4.4790165   2.5859614  14.8761356  )
        13           C1  tau(  13) = (   2.9860110   1.7239743  16.4751356  )

     number of k points=    20  Fermi-Dirac smearing, width (Ry)=  0.0110
                       cart. coord. in units 2pi/alat
        k(    1) = (   0.0000000   0.0000000   0.0000000), wk =   0.0555556
        k(    2) = (   0.0000000   0.0322253   0.0000000), wk =   0.1111111
        k(    3) = (   0.0000000   0.0644506   0.0000000), wk =   0.1111111
        k(    4) = (   0.0000000  -0.0966758   0.0000000), wk =   0.0555556
        k(    5) = (   0.0279079  -0.0161126   0.0000000), wk =   0.1111111
        k(    6) = (   0.0279079   0.0161126   0.0000000), wk =   0.1111111
        k(    7) = (   0.0279079   0.0483379   0.0000000), wk =   0.1111111
        k(    8) = (   0.0279079  -0.1127885   0.0000000), wk =   0.1111111
        k(    9) = (   0.0279079  -0.0805632   0.0000000), wk =   0.1111111
        k(   10) = (   0.0279079  -0.0483379   0.0000000), wk =   0.1111111
        k(   11) = (   0.0558158  -0.0322253   0.0000000), wk =   0.1111111
        k(   12) = (   0.0558158   0.0000000   0.0000000), wk =   0.1111111
        k(   13) = (   0.0558158   0.0322253   0.0000000), wk =   0.1111111
        k(   14) = (   0.0558158  -0.1289011   0.0000000), wk =   0.1111111
        k(   15) = (   0.0558158  -0.0966758   0.0000000), wk =   0.1111111
        k(   16) = (   0.0558158  -0.0644506   0.0000000), wk =   0.1111111
        k(   17) = (  -0.0837237   0.0483379   0.0000000), wk =   0.0555556
        k(   18) = (  -0.0837237   0.0805632   0.0000000), wk =   0.1111111
        k(   19) = (  -0.0837237   0.1127885   0.0000000), wk =   0.1111111
        k(   20) = (  -0.0837237  -0.0483379   0.0000000), wk =   0.0555556

     Largest allocated arrays     est. size (Mb)     dimensions
     Largest temporary arrays     est. size (Mb)     dimensions

     Initial potential from superposition of free atoms
     Check: negative starting charge=   -1.121513

     starting charge  159.98661, renormalised to  160.00000

     negative rho (up, down):  1.122E+00 0.000E+00

     *
     * You are using vdW-DF for exchange-correlation in this calculation.
     * Please cite the following three references that made this development
     * possible:
     *
     *   M. Dion, H. Rydberg, E. Schroder, D. C. Langreth, and
     *   B. I. Lundqvist, Phys. Rev. Lett. 92, 246401 (2004).
     *
     *   T. Thonhauser, V. R. Cooper, S. Li, A. Puzder, P. Hyldgaard, and
     *   D. C. Langreth, Phys. Rev. B 76, 125112 (2007).
     *
     *   G. Roman-Perez and J. M. Soler, Phys. Rev. Lett. 103, 096102 (2009).
     *
     *
     * If you are using vdW-DF2, please also cite:
     *
     *   K. Lee, E. D. Murray, L. Kong, B. I. Lundqvist, and
     *   D. C. Langreth, Phys. Rev. B 82, 081101(R) (2010).
     *
     *
     * If you are calculating the stress with vdW-DF, please also cite:
     *
     *   R. Sabatini, E. Kucukbenli, B. Kolb, T. Thonhauser, and
     *   S. de Gironcoli, J. Phys.: Condens. Matter 24, 424209 (2012).
     *

     Carrying out vdW-DF run using the following parameters:

     Nqs =      20    Nr_points =    1024   r_max =   100.000
     q_mesh =
               0.00001000     0.04494208     0.09755937     0.15916263
               0.23128650     0.31572767     0.41458969     0.53033537
               0.66584808     0.82450364     1.01025438     1.22772762
               1.48234092     1.78043706     2.12944203     2.53805004
               3.01644009     3.57652955     4.23227104     5.00000000

     Gradients computed in reciprocal space

     Adding external electric field

     Computed dipole along edir(3) :
        Dipole               -0.0022 Ry au,         -0.0057 Debye
        Dipole field         -0.0000 Ry au

        Potential amp.        0.0005 Ry
        Total length         45.8339 bohr

     Starting wfc are  160 randomized atomic wfcs

     Self-consistent Calculation

     iteration #  1     ecut=    36.75 Ry     beta=0.30
     Davidson diagonalization with overlap
     ethr =  1.00E-02,  avg # of iterations =  2.0

[...]

     total energy              =   -1727.35951290 Ry
     Harris-Foulkes estimate   =   -1730.11489701 Ry
     estimated scf accuracy    <       6.00530996 Ry

[...]

     End of self-consistent calculation

          k = 0.0000 0.0000 0.0000 ( 19447 PWs)   bands (ev):

   -66.7018 -66.6212 -66.5720 -66.5652 -66.5650 -66.5571 -66.5322 -66.5321
   -66.5036 -66.4601 -66.4601 -66.4369 -33.3591 -33.3591 -33.3465 -33.3180
   -33.2924 -33.2923 -33.2831 -33.2617 -33.2616 -33.2294 -33.0876 -32.9776
   -32.9331 -32.9330 -32.8836 -32.8601 -32.8600 -32.7596 -32.7596 -32.7582
   -32.7038 -32.7038 -32.6990 -32.6581 -32.6580 -32.6532 -32.6016 -32.5979
   -32.5930 -32.5929 -32.5435 -32.5435 -32.5168 -32.5167 -32.4456 -32.4456
    -7.5445  -5.5878  -3.9043  -2.9970  -2.4517  -2.4517  -2.3787  -2.2426
    -2.2426  -2.1157  -1.6122  -1.6122  -1.5354  -1.2681  -1.2681  -1.2279
    -0.2342  -0.2342  -0.0021   0.6847   0.6847   0.7365   1.1229   1.3176
     1.3176   1.5638   1.6722   1.8063   1.9773   1.9773   2.1399   2.1399
     2.3333   2.3625   2.3625   2.4350   2.4721   2.4721   2.5653   2.5653
     3.0733   3.0942

[...]

          k =-0.0837 0.0483 0.0000 ( 19532 PWs)   bands (ev):

[...]

     the Fermi energy is     1.6970 ev

!    total energy              =   -1729.75818209 Ry
     Harris-Foulkes estimate   =   -1729.75816010 Ry
     estimated scf accuracy    <       0.00000219 Ry

     The total energy is the sum of the following terms:

     one-electron contribution =  -11620.91514277 Ry
     hartree contribution      =    5792.68563494 Ry
     xc contribution           =    -526.19179539 Ry
     ewald contribution        =    4624.76549650 Ry
     electric field correction =       0.00027795 Ry
     smearing contrib. (-TS)   =      -0.10265333 Ry

     convergence has been achieved in  18 iterations

 BEEF-vdW xc energy contributions
           1 :   -463.207465735091
           2 :    427.612664581729
           3 :   -365.455115623236
           4 :    291.094450100008
           5 :   -218.950080953163
           6 :    159.060998328296
           7 :   -115.074906105625
           8 :    85.0527888507523
           9 :   -64.1819473710549
          10 :    47.8007825964294
          11 :   -33.3197368866237
          12 :    20.4612406262460
          13 :   -10.2025411373567
          14 :    3.36227735888627
          15 :   0.282019974319326
          16 :   -1.96837046118964
          17 :    3.23358231898425
          18 :   -5.06562651926021
          19 :    7.46165576539141
          20 :   -9.61770408799441
          21 :    10.5790888757048
          22 :   -9.92494357194113
          23 :    8.07361199644885
          24 :   -6.04999108183227
          25 :    4.88901336093875
          26 :   -5.05610631063610
          27 :    6.22930831102320
          28 :   -7.54898599831330
          29 :    8.15517082751427
          30 :   -7.67441100227978
          31 :   -41.4582732652652
          32 :   -30.7857007055698

     Forces acting on atoms (Ry/au):

     negative rho (up, down):  1.177E+00 0.000E+00
     atom    1 type  1   force =     0.00070902    0.00040826   -0.00006108
     atom    2 type  1   force =    -0.00070967    0.00041251   -0.00006116
     atom    3 type  1   force =     0.00000395   -0.00081965   -0.00005067
     atom    4 type  1   force =    -0.00000505   -0.00000227    0.00023432
     atom    5 type  1   force =    -0.00001100   -0.00031199   -0.00029537
     atom    6 type  1   force =     0.00000909    0.00001608    0.00066563
     atom    7 type  1   force =     0.00028387    0.00015157   -0.00031327
     atom    8 type  1   force =    -0.00028469    0.00014024   -0.00030263
     atom    9 type  1   force =     0.00000534   -0.00000114   -0.02425065
     atom   10 type  1   force =    -0.00000530    0.04536268    0.06570478
     atom   11 type  1   force =     0.03928537   -0.02268291    0.06570113
     atom   12 type  1   force =    -0.03928592   -0.02267745    0.06569103
     atom   13 type  2   force =     0.00000499    0.00000407   -0.17266207

     Total force =     0.222537     Total SCF correction =     0.004600

     entering subroutine stress ...

     negative rho (up, down):  1.177E+00 0.000E+00
          total   stress  (Ry/bohr**3)                   (kbar)     P=  -36.59
  -0.00029886  -0.00000000   0.00000000        -43.96     -0.00      0.00
  -0.00000000  -0.00029886   0.00000000         -0.00    -43.96      0.00
   0.00000000   0.00000000  -0.00014839          0.00      0.00    -21.83

     BFGS Geometry Optimization

     number of scf cycles    =   1
     number of bfgs steps    =   0

     energy   new            =   -1729.7581820906 Ry

     new trust radius        =       0.1726620663 bohr
     new conv_thr            =       0.0000099958 Ry

ATOMIC_POSITIONS (crystal)
Ta1      0.166666667   0.166666667   0.401991699    0   0   0
Ta1      0.666666667   0.166666667   0.401991699    0   0   0
Ta1      0.166666667   0.666666667   0.401991699    0   0   0
Ta1      0.666666667   0.666666667   0.401991699    0   0   0
Ta1      0.833333333   0.333333333   0.500000000    0   0   0
Ta1      0.333333333   0.333333333   0.500000000    0   0   0
Ta1      0.833333333   0.833333333   0.500000000    0   0   0
Ta1      0.333333333   0.833333333   0.500000000    0   0   0
Ta1      0.000000532  -0.000000117   0.597492430
Ta1      0.497678836   0.004641387   0.599406005
Ta1      0.004641479   0.497679146   0.599405928
Ta1      0.497679047   0.497679704   0.599405713
C1       0.333333567   0.333333749   0.658613823

     Writing output data file calc.save
     Check: negative starting charge=   -1.121513
     NEW-OLD atomic charge density approx. for the potential
     Check: negative starting charge=   -1.123790

[...]

     energy   old            =   -1729.7581820906 Ry
     energy   new            =   -1729.8036704715 Ry

     CASE: energy  _new < energy  _old

     WARNING: bfgs curvature condition failed, Theta= 0.979
     new trust radius        =       0.1899282729 bohr
     new conv_thr            =       0.0000001000 Ry

[...]

     iteration #  1     ecut=    36.75 Ry     beta=0.30
     Davidson diagonalization with overlap
     c_bands:  1 eigenvalues not converged
     ethr =  1.00E-06,  avg # of iterations = 15.5

[...]

     Threshold (ethr) on eigenvalues was too large:
     Diagonalizing with lowered threshold

     Davidson diagonalization with overlap
     ethr =  5.95E-08,  avg # of iterations =  1.2

[...]

     Total force =     0.005323     Total SCF correction =     0.000275

[...]

     number of scf cycles    =  13
     number of bfgs steps    =  12

     energy   old            =   -1729.8809690474 Ry
     energy   new            =   -1729.8811550902 Ry

     CASE: energy  _new < energy  _old

     new trust radius        =       0.0164856883 bohr
     new conv_thr            =       0.0000001000 Ry

ATOMIC_POSITIONS (crystal)
Ta1      0.166666667   0.166666667   0.401991699    0   0   0
Ta1      0.666666667   0.166666667   0.401991699    0   0   0
Ta1      0.166666667   0.666666667   0.401991699    0   0   0
Ta1      0.666666667   0.666666667   0.401991699    0   0   0
Ta1      0.833333333   0.333333333   0.500000000    0   0   0
Ta1      0.333333333   0.333333333   0.500000000    0   0   0
Ta1      0.833333333   0.833333333   0.500000000    0   0   0
Ta1      0.333333333   0.833333333   0.500000000    0   0   0
Ta1     -0.000000182   0.000000290   0.587331276
Ta1      0.506798387  -0.013596078   0.602815232
Ta1     -0.013596411   0.506798573   0.602815242
Ta1      0.506798317   0.506798370   0.602815230
C1       0.333333250   0.333333649   0.641009284

     Writing output data file calc.save
     Check: negative starting charge=   -1.124311
     NEW-OLD atomic charge density approx. for the potential
     Check: negative starting charge=   -1.123459

[...]

     Self-consistent Calculation

[...]

     total energy              =   -1729.88121032 Ry
     Harris-Foulkes estimate   =   -1729.88121029 Ry
     estimated scf accuracy    <       0.00000014 Ry

     iteration # 11     ecut=    36.75 Ry     beta=0.30
     Davidson diagonalization with overlap
     ethr =  9.06E-11,  avg # of iterations =  2.3

[...]

     negative rho (up, down):  1.179E+00 0.000E+00

     Adding external electric field

     Computed dipole along edir(3) :
        Dipole               -0.1473 Ry au,         -0.3744 Debye
        Dipole field         -0.0004 Ry au

        Potential amp.        0.0327 Ry
        Total length         45.8339 bohr

     End of self-consistent calculation

[...]

          k = 0.0558-0.0645 0.0000 ( 19521 PWs)   bands (ev):

[...]

          k =-0.0837-0.0483 0.0000 ( 19532 PWs)   bands (ev):

   -66.4059 -66.3979 -66.3790 -66.3714 -66.3665 -66.2881 -66.2706 -66.2534
   -66.2480 -66.2436 -66.2290 -66.1831 -33.0511 -32.9990 -32.9971 -32.9827
   -32.9802 -32.9684 -32.9184 -32.8756 -32.8737 -32.8432 -32.8106 -32.7730
   -32.7307 -32.7052 -32.6959 -32.6630 -32.6520 -32.6455 -32.6276 -32.6258
   -32.5984 -32.5917 -32.5467 -32.5367 -32.5182 -32.5063 -32.4709 -32.4523
   -32.4484 -32.4347 -32.3635 -32.3627 -32.3294 -32.3052 -32.2470 -32.2358
    -8.0200  -3.8366  -3.6087  -2.6162  -2.1128  -1.6842  -1.4869  -1.4116
    -1.2722  -1.1606  -1.0799  -0.7954  -0.4754  -0.4383  -0.1870  -0.1480
    -0.0004   0.0256   0.2073   0.3968   0.4026   0.6105   0.7061   0.7778
     0.8500   0.9827   1.0709   1.2786   1.2799   1.3328   1.4086   1.4477
     1.5729   1.7444   2.0354   2.1556   2.1967   2.2886   2.4356   2.7819
     3.0801   3.2409

     the Fermi energy is     1.8799 ev

!    total energy              =   -1729.88121033 Ry
     Harris-Foulkes estimate   =   -1729.88121066 Ry
     estimated scf accuracy    <       0.00000002 Ry

     The total energy is the sum of the following terms:

     one-electron contribution =  -11673.59133382 Ry
     hartree contribution      =    5820.18811310 Ry
     xc contribution           =    -526.61998164 Ry
     ewald contribution        =    4650.23896659 Ry
     electric field correction =       0.00005257 Ry
     smearing contrib. (-TS)   =      -0.09702713 Ry

     convergence has been achieved in  11 iterations

 BEEF-vdW xc energy contributions
           1 :   -463.628257447235
           2 :    428.094280036779
           3 :   -365.986793395708
           4 :    291.590619236841
           5 :   -219.294937548675
           6 :    159.159358324640
           7 :   -114.890334730027
           8 :    84.6230789148636
           9 :   -63.6083489938379
          10 :    47.2119660678781
          11 :   -32.8210840057837
          12 :    20.0911025332992
          13 :   -9.91992633361787
          14 :    3.07719497717176
          15 :   0.650638346248570
          16 :   -2.43990312788299
          17 :    3.74796534288180
          18 :   -5.51310859542673
          19 :    7.74430175149098
          20 :   -9.70519502459786
          21 :    10.5267275350932
          22 :   -9.84537914988437
          23 :    8.07835928104578
          24 :   -6.19200043728927
          25 :    5.13679879894534
          26 :   -5.31408580197319
          27 :    6.39483182361806
          28 :   -7.57464059306193
          29 :    8.07910582018093
          30 :   -7.59883941983003
          31 :   -41.4842705340001
          32 :   -30.8199965828524

     Forces acting on atoms (Ry/au):

     negative rho (up, down):  1.179E+00 0.000E+00
     atom    1 type  1   force =     0.00219139    0.00126520    0.00091538
     atom    2 type  1   force =    -0.00219135    0.00126514    0.00091546
     atom    3 type  1   force =    -0.00000003   -0.00253038    0.00091543
     atom    4 type  1   force =     0.00000006    0.00000000    0.00013459
     atom    5 type  1   force =     0.00000003    0.02392291   -0.00630269
     atom    6 type  1   force =    -0.00000005   -0.00000006    0.01475155
     atom    7 type  1   force =    -0.02071790   -0.01196151   -0.00630275
     atom    8 type  1   force =     0.02071778   -0.01196138   -0.00630241
     atom    9 type  1   force =     0.00000027   -0.00000008    0.00177927
     atom   10 type  1   force =    -0.00000033   -0.00064929   -0.00017440
     atom   11 type  1   force =    -0.00056226    0.00032455   -0.00017450
     atom   12 type  1   force =     0.00056220    0.00032490   -0.00017430
     atom   13 type  2   force =     0.00000019   -0.00000002    0.00001936

     Total force =     0.002127     Total SCF correction =     0.000425
     SCF correction compared to forces is large: reduce conv_thr to get better values

     entering subroutine stress ...

     negative rho (up, down):  1.179E+00 0.000E+00
          total   stress  (Ry/bohr**3)                   (kbar)     P=  -22.18
  -0.00020134  -0.00000000   0.00000000        -29.62     -0.00      0.00
  -0.00000000  -0.00020134   0.00000000         -0.00    -29.62      0.00
   0.00000000   0.00000000  -0.00004971          0.00      0.00     -7.31

     bfgs converged in  14 scf cycles and  13 bfgs steps
     (criteria: energy <  1.0E+00, force <  1.9E-03)

     End of BFGS Geometry Optimization

     Final energy   =   -1729.8812103281 Ry
Begin final coordinates

ATOMIC_POSITIONS (crystal)
Ta1      0.166666667   0.166666667   0.401991699    0   0   0
Ta1      0.666666667   0.166666667   0.401991699    0   0   0
Ta1      0.166666667   0.666666667   0.401991699    0   0   0
Ta1      0.666666667   0.666666667   0.401991699    0   0   0
Ta1      0.833333333   0.333333333   0.500000000    0   0   0
Ta1      0.333333333   0.333333333   0.500000000    0   0   0
Ta1      0.833333333   0.833333333   0.500000000    0   0   0
Ta1      0.333333333   0.833333333   0.500000000    0   0   0
Ta1     -0.000000182   0.000000290   0.587331276
Ta1      0.506798387  -0.013596078   0.602815232
Ta1     -0.013596411   0.506798573   0.602815242
Ta1      0.506798317   0.506798370   0.602815230
C1       0.333333250   0.333333649   0.641009284
End final coordinates

     Writing output data file calc.save

     General routines

     Parallel routines

   This run was terminated on:   8:52:49   3May2018

   JOB DONE.
Job  /afs/slac/g/suncat/bin/suncat-tsmpirun -x LD_LIBRARY_PATH -wdir /scratch/qe641370_VJ9BN pw.x -npool 4 -in pw.inp

TID   HOST_NAME   COMMAND_LINE            STATUS            TERMINATION_TIME
00000 suncat0018 pw.x -npool 4 -i  Done                     05/03/2018 08:52:49
00001 suncat0018 pw.x -npool 4 -i  Done                     05/03/2018 08:52:49
00002 suncat0018 pw.x -npool 4 -i  Done                     05/03/2018 08:52:49
00003 suncat0018 pw.x -npool 4 -i  Done                     05/03/2018 08:52:49
00004 suncat0018 pw.x -npool 4 -i  Done                     05/03/2018 08:52:49
00005 suncat0018 pw.x -npool 4 -i  Done                     05/03/2018 08:52:49
00006 suncat0018 pw.x -npool 4 -i  Done                     05/03/2018 08:52:49
00007 suncat0018 pw.x -npool 4 -i  Done                     05/03/2018 08:52:49
00008 suncat0017 pw.x -npool 4 -i  Done                     05/03/2018 08:52:49
00009 suncat0017 pw.x -npool 4 -i  Done                     05/03/2018 08:52:49
00010 suncat0017 pw.x -npool 4 -i  Done                     05/03/2018 08:52:49
00011 suncat0017 pw.x -npool 4 -i  Done                     05/03/2018 08:52:49
00012 suncat0017 pw.x -npool 4 -i  Done                     05/03/2018 08:52:49
00013 suncat0017 pw.x -npool 4 -i  Done                     05/03/2018 08:52:49
00014 suncat0017 pw.x -npool 4 -i  Done                     05/03/2018 08:52:49
00015 suncat0017 pw.x -npool 4 -i  Done                     05/03/2018 08:52:49
00016 suncat0005 pw.x -npool 4 -i  Done                     05/03/2018 08:52:49
00017 suncat0005 pw.x -npool 4 -i  Done                     05/03/2018 08:52:49
00018 suncat0005 pw.x -npool 4 -i  Done                     05/03/2018 08:52:49
00019 suncat0005 pw.x -npool 4 -i  Done                     05/03/2018 08:52:49
00020 suncat0005 pw.x -npool 4 -i  Done                     05/03/2018 08:52:49
00021 suncat0005 pw.x -npool 4 -i  Done                     05/03/2018 08:52:49
00022 suncat0005 pw.x -npool 4 -i  Done                     05/03/2018 08:52:49
00023 suncat0005 pw.x -npool 4 -i  Done                     05/03/2018 08:52:49
00024 suncat0004 pw.x -npool 4 -i  Done                     05/03/2018 08:52:49
00025 suncat0004 pw.x -npool 4 -i  Done                     05/03/2018 08:52:49
00026 suncat0004 pw.x -npool 4 -i  Done                     05/03/2018 08:52:49
00027 suncat0004 pw.x -npool 4 -i  Done                     05/03/2018 08:52:49
00028 suncat0004 pw.x -npool 4 -i  Done                     05/03/2018 08:52:49
00029 suncat0004 pw.x -npool 4 -i  Done                     05/03/2018 08:52:49
00030 suncat0004 pw.x -npool 4 -i  Done                     05/03/2018 08:52:49
00031 suncat0004 pw.x -npool 4 -i  Done                     05/03/2018 08:52:49