     Program PWSCF v.5.1rc2 (svn rev. 11289) starts on  2May2018 at  2: 3:41

     Current dimensions of program PWSCF are:
     Max number of different atomic species (ntypx) = 10
     Max number of k-points (npk) =  40000
     Max angular momentum in pseudopotentials (lmaxx) =  3
     Presently stress not available with electric field

     IMPORTANT: XC functional enforced from input :
     Exchange-correlation      = BEEF-VDW ( 1  4 27 13 2)
     Any further DFT definition will be discarded
     Please, verify this is what you really want

     Subspace diagonalization in iterative solution of the eigenvalue problem:
     a serial algorithm will be used

     bravais-lattice index     =            0
     lattice parameter (alat)  =       1.8897  a.u.
     unit-cell volume          =    3807.2308 (a.u.)^3
     number of atoms/cell      =           13
     number of atomic types    =            2
     number of electrons       =       229.00
     number of Kohn-Sham states=          124
     kinetic-energy cutoff     =      36.7493  Ry
     charge density cutoff     =     367.4932  Ry
     convergence threshold     =      1.0E-05
     mixing beta               =       0.3000
     number of iterations used =           10  plain     mixing
     Exchange-correlation      = BEEF-VDW ( 1  4 27 13 2)
     nstep                     =           50

     celldm(1)=   1.889726  celldm(2)=   0.000000  celldm(3)=   0.000000
     celldm(4)=   0.000000  celldm(5)=   0.000000  celldm(6)=   0.000000

     crystal axes: (cart. coord. in units of alat)
               a(1) = (   5.184823   0.000000   0.000000 )
               a(2) = (   2.592411   4.490188   0.000000 )
               a(3) = (   0.000000   0.000000  24.233390 )

     reciprocal axes: (cart. coord. in units 2 pi/alat)
               b(1) = (  0.192871 -0.111354  0.000000 )
               b(2) = (  0.000000  0.222708  0.000000 )
               b(3) = (  0.000000  0.000000  0.041265 )

     PseudoPot. # 1 for Cu read from file:
     /u/if/mamunm/psp/gbrv1.5pbe/Cu.UPF
     MD5 check sum: 6e991ff952a84172a2a52a1c1e996048
     Pseudo is Ultrasoft + core correction, Zval = 19.0
     Generated by new atomic code, or converted to UPF format
     Using radial grid of  867 points,  6 beta functions with:
                l(1) =   0
                l(2) =   0
                l(3) =   1
                l(4) =   1
                l(5) =   2
                l(6) =   2
     Q(r) pseudized with  8 coefficients,  rinner =    1.150   1.150   1.150
                                                       1.150   1.150

     PseudoPot. # 2 for H  read from file:
     /u/if/mamunm/psp/gbrv1.5pbe/H.UPF
     MD5 check sum: 761ae9a214b05c3daf00ab9f6b793d6f
     Pseudo is Ultrasoft, Zval =  1.0
     Generated by new atomic code, or converted to UPF format
     Using radial grid of  615 points,  2 beta functions with:
                l(1) =   0
                l(2) =   0
     Q(r) pseudized with  8 coefficients,  rinner =    0.700

     vdW kernel table read from file vdW_kernel_table
     MD5 check sum: 095c7af220d748ca6e76c0b4c6cfb241

     atomic species   valence    mass     pseudopotential
        Cu1           19.00    63.54600     Cu( 1.00)
        H1             1.00     1.00800     H ( 1.00)

     No symmetry found

   Cartesian axes

     site n.     atom                  positions (alat units)
         1           Cu1 tau(   1) = (   1.2962057   0.7483647  10.0000000  )
         2           Cu1 tau(   2) = (   3.8886170   0.7483647  10.0000000  )
         3           Cu1 tau(   3) = (   2.5924113   2.9934587  10.0000000  )
         4           Cu1 tau(   4) = (   5.1848226   2.9934587  10.0000000  )
         5           Cu1 tau(   5) = (   5.1848226   1.4967294  12.1166950  )
         6           Cu1 tau(   6) = (   2.5924113   1.4967294  12.1166950  )
         7           Cu1 tau(   7) = (   6.4810283   3.7418234  12.1166950  )
         8           Cu1 tau(   8) = (   3.8886170   3.7418234  12.1166950  )
         9           Cu1 tau(   9) = (   0.0000000   0.0000000  14.2333899  )
        10           Cu1 tau(  10) = (   2.5924113   0.0000000  14.2333899  )
        11           Cu1 tau(  11) = (   1.2962057   2.2450940  14.2333899  )
        12           Cu1 tau(  12) = (   3.8886170   2.2450940  14.2333899  )
        13           H1  tau(  13) = (   1.2962057   0.0000000  15.4558899  )

     number of k points=    20  Fermi-Dirac smearing, width (Ry)=  0.0110
                       cart. coord. in units 2pi/alat
        k(    1) = (   0.0000000   0.0000000   0.0000000), wk =   0.0555556
        k(    2) = (   0.0000000   0.0371180   0.0000000), wk =   0.1111111
        k(    3) = (   0.0000000   0.0742359   0.0000000), wk =   0.1111111
        k(    4) = (   0.0000000  -0.1113539   0.0000000), wk =   0.0555556
        k(    5) = (   0.0321451  -0.0185590   0.0000000), wk =   0.1111111
        k(    6) = (   0.0321451   0.0185590   0.0000000), wk =   0.1111111
        k(    7) = (   0.0321451   0.0556770   0.0000000), wk =   0.1111111
        k(    8) = (   0.0321451  -0.1299129   0.0000000), wk =   0.1111111
        k(    9) = (   0.0321451  -0.0927949   0.0000000), wk =   0.1111111
        k(   10) = (   0.0321451  -0.0556770   0.0000000), wk =   0.1111111
        k(   11) = (   0.0642902  -0.0371180   0.0000000), wk =   0.1111111
        k(   12) = (   0.0642902  -0.0000000   0.0000000), wk =   0.1111111
        k(   13) = (   0.0642902   0.0371180   0.0000000), wk =   0.1111111
        k(   14) = (   0.0642902  -0.1484719   0.0000000), wk =   0.1111111
        k(   15) = (   0.0642902  -0.1113539   0.0000000), wk =   0.1111111
        k(   16) = (   0.0642902  -0.0742359   0.0000000), wk =   0.1111111
        k(   17) = (  -0.0964353   0.0556770   0.0000000), wk =   0.0555556
        k(   18) = (  -0.0964353   0.0927949   0.0000000), wk =   0.1111111
        k(   19) = (  -0.0964353   0.1299129   0.0000000), wk =   0.1111111
        k(   20) = (  -0.0964353  -0.0556770   0.0000000), wk =   0.0555556

     Largest allocated arrays     est. size (Mb)     dimensions
     Largest temporary arrays     est. size (Mb)     dimensions

     Initial potential from superposition of free atoms
     Check: negative starting charge=   -0.000122

     starting charge  216.99997, renormalised to  229.00000

     negative rho (up, down):  1.290E-04 0.000E+00

     *
     * You are using vdW-DF for exchange-correlation in this calculation.
     * Please cite the following three references that made this development
     * possible:
     *
     *   M. Dion, H. Rydberg, E. Schroder, D. C. Langreth, and
     *   B. I. Lundqvist, Phys. Rev. Lett. 92, 246401 (2004).
     *
     *   T. Thonhauser, V. R. Cooper, S. Li, A. Puzder, P. Hyldgaard, and
     *   D. C. Langreth, Phys. Rev. B 76, 125112 (2007).
     *
     *   G. Roman-Perez and J. M. Soler, Phys. Rev. Lett. 103, 096102 (2009).
     *
     *
     * If you are using vdW-DF2, please also cite:
     *
     *   K. Lee, E. D. Murray, L. Kong, B. I. Lundqvist, and
     *   D. C. Langreth, Phys. Rev. B 82, 081101(R) (2010).
     *
     *
     * If you are calculating the stress with vdW-DF, please also cite:
     *
     *   R. Sabatini, E. Kucukbenli, B. Kolb, T. Thonhauser, and
     *   S. de Gironcoli, J. Phys.: Condens. Matter 24, 424209 (2012).
     *

     Carrying out vdW-DF run using the following parameters:

     Nqs =      20    Nr_points =    1024   r_max =   100.000
     q_mesh =
               0.00001000     0.04494208     0.09755937     0.15916263
               0.23128650     0.31572767     0.41458969     0.53033537
               0.66584808     0.82450364     1.01025438     1.22772762
               1.48234092     1.78043706     2.12944203     2.53805004
               3.01644009     3.57652955     4.23227104     5.00000000

     Gradients computed in reciprocal space

     Adding external electric field

     Computed dipole along edir(3) :
        Dipole               -0.3489 Ry au,         -0.8868 Debye
        Dipole field         -0.0012 Ry au

        Potential amp.        0.1028 Ry
        Total length         44.6496 bohr

     Starting wfc are  157 randomized atomic wfcs

     Self-consistent Calculation

     iteration #  1     ecut=    36.75 Ry     beta=0.30
     Davidson diagonalization with overlap
     ethr =  1.00E-02,  avg # of iterations =  5.4

[...]

     total energy              =   -4812.31155803 Ry
     Harris-Foulkes estimate   =   -4872.23364433 Ry
     estimated scf accuracy    <     126.06988589 Ry

[...]

     End of self-consistent calculation

          k = 0.0000 0.0000 0.0000 ( 14321 PWs)   bands (ev):

  -112.3663-112.3077-112.3040-112.2940-112.2903-112.2227-112.0490-112.0442
  -112.0395-112.0219-111.9854-111.9609 -69.7754 -69.7746 -69.7643 -69.7373
   -69.7327 -69.7113 -69.7111 -69.7021 -69.6998 -69.6972 -69.6951 -69.6911
   -69.6765 -69.6446 -69.6284 -69.6243 -69.6154 -69.6008 -69.5022 -69.4881
   -69.4877 -69.4458 -69.4429 -69.4406 -69.4265 -69.4192 -69.4189 -69.4108
   -69.4066 -69.4002 -69.3919 -69.3768 -69.3751 -69.3700 -69.3533 -69.3271
    -8.0550  -6.4073  -4.9413  -4.3395  -4.2565  -4.2451  -4.1815  -4.0795
    -4.0532  -3.8867  -3.7364  -3.7065  -3.6909  -3.6730  -3.6438  -3.3964
    -3.0592  -3.0282  -2.8267  -2.7516  -2.7358  -2.6843  -2.6619  -2.6171
    -2.6133  -2.4814  -2.4778  -2.4452  -2.4254  -2.4111  -2.3771  -2.3319
    -2.3109  -2.2889  -2.1870  -2.1217  -1.9033  -1.8709  -1.8545  -1.8154
    -1.8082  -1.7801  -1.7665  -1.6328  -1.5870  -1.5794  -1.4579  -1.4430
    -1.4211  -1.4127  -1.3666  -1.3626  -1.3567  -1.3405  -1.3391  -1.3151
    -1.3125  -1.2406  -1.1668  -1.1123  -1.1037  -1.0975  -1.0936  -0.4433
     0.3803   0.4072   0.4209   1.1275   1.4426   1.4734   1.7813   1.8838
     1.8953   3.5952   4.1092   4.5142

[...]

          k =-0.0964 0.0557 0.0000 ( 14294 PWs)   bands (ev):

[...]

     the Fermi energy is     0.2655 ev

!    total energy              =   -4860.40647910 Ry
     Harris-Foulkes estimate   =   -4860.40648084 Ry
     estimated scf accuracy    <       0.00000213 Ry

     The total energy is the sum of the following terms:

     one-electron contribution =  -37176.59421233 Ry
     hartree contribution      =   18601.73227364 Ry
     xc contribution           =    -480.74680702 Ry
     ewald contribution        =   14195.22780712 Ry
     electric field correction =       0.00000414 Ry
     smearing contrib. (-TS)   =      -0.02554466 Ry

     convergence has been achieved in  17 iterations

 BEEF-vdW xc energy contributions
           1 :   -426.139522579496
           2 :    386.372210985541
           3 :   -318.977089252876
           4 :    242.497743637610
           5 :   -173.852794627876
           6 :    122.226284553650
           7 :   -87.6007359812373
           8 :    63.9053549396294
           9 :   -44.3104734844596
          10 :    25.3870252553715
          11 :   -8.04182971848240
          12 :   -4.61507431778273
          13 :    10.4742854580567
          14 :   -10.3829278811904
          15 :    7.71266891240259
          16 :   -6.15613357976599
          17 :    7.47340553932275
          18 :   -10.7349356807181
          19 :    13.4184599535879
          20 :   -13.4368152610714
          21 :    10.6347609277864
          22 :   -6.78849078567742
          23 :    4.24591303551836
          24 :   -4.26677463474948
          25 :    6.23528296421546
          26 :   -8.22695103311997
          27 :    8.44366787224226
          28 :   -6.46798537660720
          29 :    3.47725290404867
          30 :   -1.32950395374928
          31 :   -33.8994636481510
          32 :   -23.1476253451203

     Forces acting on atoms (Ry/au):

     negative rho (up, down):  1.071E-03 0.000E+00
     atom    1 type  1   force =    -0.00000403   -0.00242366    0.00651234
     atom    2 type  1   force =     0.00000497    0.00006666    0.00282491
     atom    3 type  1   force =     0.00194343    0.00122443    0.00442201
     atom    4 type  1   force =    -0.00194418    0.00122037    0.00441434
     atom    5 type  1   force =    -0.00106998    0.00047602    0.00024770
     atom    6 type  1   force =     0.00107057    0.00048000    0.00024651
     atom    7 type  1   force =     0.00000333    0.00070552    0.00777645
     atom    8 type  1   force =    -0.00000372   -0.00113018   -0.00848652
     atom    9 type  1   force =     0.01147387   -0.00064550    0.01164770
     atom   10 type  1   force =    -0.01147448   -0.00064513    0.01164849
     atom   11 type  1   force =     0.00000085   -0.00187868   -0.00501356
     atom   12 type  1   force =    -0.00000057    0.00243626   -0.00554747
     atom   13 type  2   force =    -0.00000007    0.00011390   -0.03069287

     Total force =     0.039280     Total SCF correction =     0.003519

     entering subroutine stress ...

     negative rho (up, down):  1.071E-03 0.000E+00
          total   stress  (Ry/bohr**3)                   (kbar)     P=  -26.51
  -0.00020104  -0.00000000   0.00000000        -29.57     -0.00      0.00
  -0.00000000  -0.00018724  -0.00000066         -0.00    -27.54     -0.10
   0.00000000  -0.00000066  -0.00015227          0.00     -0.10    -22.40

     BFGS Geometry Optimization

     number of scf cycles    =   1
     number of bfgs steps    =   0

     energy   new            =   -4860.4064791022 Ry

     new trust radius        =       0.0306930840 bohr
     new conv_thr            =       0.0000099958 Ry

ATOMIC_POSITIONS (crystal)
Cu1      0.166666667   0.166666667   0.412653782    0   0   0
Cu1      0.666666667   0.166666667   0.412653782    0   0   0
Cu1      0.166666667   0.666666667   0.412653782    0   0   0
Cu1      0.666666667   0.666666667   0.412653782    0   0   0
Cu1      0.833333333   0.333333333   0.500000000    0   0   0
Cu1      0.333333333   0.333333333   0.500000000    0   0   0
Cu1      0.833333333   0.833333333   0.500000000    0   0   0
Cu1      0.333333333   0.833333333   0.500000000    0   0   0
Cu1      0.001209091  -0.000076073   0.587600565
Cu1      0.498866898  -0.000076030   0.587600583
Cu1      0.000110790   0.499778594   0.587236738
Cu1      0.499856383   0.500287118   0.587225080
H1       0.249993281   0.000013423   0.637122912

     Writing output data file calc.save
     Check: negative starting charge=   -0.000122
     NEW-OLD atomic charge density approx. for the potential
     Check: negative starting charge=   -0.000123

[...]

     Total force =     0.026018     Total SCF correction =     0.017964
     SCF correction compared to forces is large: reduce conv_thr to get better values

[...]

     energy   old            =   -4860.4064791022 Ry
     energy   new            =   -4860.4078504401 Ry

     CASE: energy  _new < energy  _old

[...]

     WARNING: bfgs curvature condition failed, Theta= 0.801
     new trust radius        =       0.0506435885 bohr
     new conv_thr            =       0.0000001000 Ry

[...]

     Total force =     0.005000     Total SCF correction =     0.000287

[...]

     WARNING: bfgs curvature condition failed, Theta= 0.952
     new trust radius        =       0.0078806093 bohr
     new conv_thr            =       0.0000001000 Ry

[...]

     number of scf cycles    =  12
     number of bfgs steps    =  11

     energy   old            =   -4860.4118941215 Ry
     energy   new            =   -4860.4119265950 Ry

     CASE: energy  _new < energy  _old

     new trust radius        =       0.0118209140 bohr
     new conv_thr            =       0.0000001000 Ry

ATOMIC_POSITIONS (crystal)
Cu1      0.166666667   0.166666667   0.412653782    0   0   0
Cu1      0.666666667   0.166666667   0.412653782    0   0   0
Cu1      0.166666667   0.666666667   0.412653782    0   0   0
Cu1      0.666666667   0.666666667   0.412653782    0   0   0
Cu1      0.833333333   0.333333333   0.500000000    0   0   0
Cu1      0.333333333   0.333333333   0.500000000    0   0   0
Cu1      0.833333333   0.833333333   0.500000000    0   0   0
Cu1      0.333333333   0.833333333   0.500000000    0   0   0
Cu1     -0.000314581  -0.001364699   0.588082939
Cu1      0.501679309  -0.001364935   0.588082672
Cu1      0.000572972   0.498854392   0.585647402
Cu1      0.500209804   0.499580180   0.585305288
H1       0.249161730   0.001676998   0.631164191

     Writing output data file calc.save
     Check: negative starting charge=   -0.000127
     NEW-OLD atomic charge density approx. for the potential
     Check: negative starting charge=   -0.000127

[...]

     Self-consistent Calculation

[...]

     total energy              =   -4860.41195655 Ry
     Harris-Foulkes estimate   =   -4860.41195657 Ry
     estimated scf accuracy    <       0.00000023 Ry

     iteration #  9     ecut=    36.75 Ry     beta=0.30
     Davidson diagonalization with overlap
     ethr =  9.96E-11,  avg # of iterations =  2.2

[...]

     negative rho (up, down):  1.084E-03 0.000E+00

     Adding external electric field

     Computed dipole along edir(3) :
        Dipole               -0.0254 Ry au,         -0.0646 Debye
        Dipole field         -0.0001 Ry au

        Potential amp.        0.0075 Ry
        Total length         44.6496 bohr

     End of self-consistent calculation

[...]

          k = 0.0643-0.0742 0.0000 ( 14299 PWs)   bands (ev):

[...]

          k =-0.0964-0.0557 0.0000 ( 14294 PWs)   bands (ev):

  -112.3399-112.3231-112.3230-112.2838-112.2837-112.1959-112.0100-112.0084
  -112.0063-111.9970-111.9944-111.9685 -69.7823 -69.7794 -69.7410 -69.7366
   -69.7335 -69.7184 -69.7179 -69.6927 -69.6858 -69.6831 -69.6822 -69.6759
   -69.6671 -69.6513 -69.6502 -69.6037 -69.5955 -69.5776 -69.4521 -69.4401
   -69.4298 -69.4244 -69.4209 -69.4187 -69.4136 -69.4038 -69.4020 -69.3924
   -69.3917 -69.3776 -69.3720 -69.3709 -69.3698 -69.3673 -69.3500 -69.3398
    -6.4545  -6.1875  -5.4785  -4.5784  -4.2124  -3.9561  -3.9299  -3.7132
    -3.6965  -3.6777  -3.5897  -3.3948  -3.3679  -3.2395  -3.2128  -3.1666
    -3.1147  -2.9975  -2.9719  -2.9623  -2.9361  -2.8888  -2.8623  -2.6747
    -2.6601  -2.6097  -2.5274  -2.4920  -2.4647  -2.4545  -2.4203  -2.3807
    -2.3367  -2.3314  -2.3071  -2.3023  -2.2896  -2.2656  -2.2586  -2.2517
    -2.0701  -2.0455  -2.0151  -1.9859  -1.8972  -1.8846  -1.8232  -1.8132
    -1.8037  -1.7865  -1.7112  -1.7052  -1.6581  -1.6261  -1.5783  -1.5683
    -1.5022  -1.4167  -1.3560  -1.3538  -1.3374  -1.3136  -1.2516  -1.2194
    -0.1952   0.2537   0.3059   0.5347   1.2195   1.3976   2.4192   3.1099
     3.5953   3.7971   5.6014   5.8167

     the Fermi energy is     0.2919 ev

!    total energy              =   -4860.41195656 Ry
     Harris-Foulkes estimate   =   -4860.41195653 Ry
     estimated scf accuracy    <       0.00000005 Ry

     The total energy is the sum of the following terms:

     one-electron contribution =  -37257.07696298 Ry
     hartree contribution      =   18642.09800185 Ry
     xc contribution           =    -480.79477464 Ry
     ewald contribution        =   14235.38710234 Ry
     electric field correction =       0.00000213 Ry
     smearing contrib. (-TS)   =      -0.02532527 Ry

     convergence has been achieved in   9 iterations

 BEEF-vdW xc energy contributions
           1 :   -426.190623684440
           2 :    386.443739958217
           3 :   -319.065559465929
           4 :    242.574078509768
           5 :   -173.883141084482
           6 :    122.198364379695
           7 :   -87.5359220419889
           8 :    63.8461633611869
           9 :   -44.2918732789214
          10 :    25.4126783195741
          11 :   -8.08272396661471
          12 :   -4.59833805245523
          13 :    10.5017222043584
          14 :   -10.4396350199548
          15 :    7.75890253642098
          16 :   -6.15608269573420
          17 :    7.42183245210117
          18 :   -10.6619427349351
          19 :    13.3688441814794
          20 :   -13.4387299615477
          21 :    10.6799816140704
          22 :   -6.83853890306813
          23 :    4.25972252320344
          24 :   -4.23003915700383
          25 :    6.17094709585876
          26 :   -8.17976294971004
          27 :    8.44910384019590
          28 :   -6.52655543776257
          29 :    3.55199675609077
          30 :   -1.36933759725537
          31 :   -33.9034620361721
          32 :   -23.1549147768702

     Forces acting on atoms (Ry/au):

     negative rho (up, down):  1.084E-03 0.000E+00
     atom    1 type  1   force =     0.00000001   -0.00215571    0.00550682
     atom    2 type  1   force =     0.00000002    0.00005816    0.00187149
     atom    3 type  1   force =     0.00166923    0.00110935    0.00304909
     atom    4 type  1   force =    -0.00166927    0.00110932    0.00304900
     atom    5 type  1   force =    -0.00094837   -0.00126021   -0.00427089
     atom    6 type  1   force =     0.00094838   -0.00126005   -0.00427117
     atom    7 type  1   force =     0.00000016    0.00199433    0.00621191
     atom    8 type  1   force =    -0.00000018    0.00071788   -0.01049927
     atom    9 type  1   force =    -0.00054639   -0.00027035   -0.00151222
     atom   10 type  1   force =     0.00054628   -0.00027030   -0.00151130
     atom   11 type  1   force =    -0.00000018   -0.00054588    0.00192392
     atom   12 type  1   force =     0.00000019    0.00010076    0.00186946
     atom   13 type  2   force =     0.00000013    0.00067271   -0.00141685

     Total force =     0.003909     Total SCF correction =     0.000655
     SCF correction compared to forces is large: reduce conv_thr to get better values

     entering subroutine stress ...

     negative rho (up, down):  1.084E-03 0.000E+00
          total   stress  (Ry/bohr**3)                   (kbar)     P=  -20.52
  -0.00015888   0.00000000   0.00000000        -23.37      0.00      0.00
   0.00000000  -0.00015853   0.00000000          0.00    -23.32      0.00
   0.00000000   0.00000000  -0.00010105          0.00      0.00    -14.87

     bfgs converged in  13 scf cycles and  12 bfgs steps
     (criteria: energy <  1.0E+00, force <  1.9E-03)

     End of BFGS Geometry Optimization

     Final energy   =   -4860.4119565623 Ry
Begin final coordinates

ATOMIC_POSITIONS (crystal)
Cu1      0.166666667   0.166666667   0.412653782    0   0   0
Cu1      0.666666667   0.166666667   0.412653782    0   0   0
Cu1      0.166666667   0.666666667   0.412653782    0   0   0
Cu1      0.666666667   0.666666667   0.412653782    0   0   0
Cu1      0.833333333   0.333333333   0.500000000    0   0   0
Cu1      0.333333333   0.333333333   0.500000000    0   0   0
Cu1      0.833333333   0.833333333   0.500000000    0   0   0
Cu1      0.333333333   0.833333333   0.500000000    0   0   0
Cu1     -0.000314581  -0.001364699   0.588082939
Cu1      0.501679309  -0.001364935   0.588082672
Cu1      0.000572972   0.498854392   0.585647402
Cu1      0.500209804   0.499580180   0.585305288
H1       0.249161730   0.001676998   0.631164191
End final coordinates

     Writing output data file calc.save

     General routines

     Parallel routines

   This run was terminated on:   3: 0:18   2May2018

   JOB DONE.
Job  /afs/slac/g/suncat/bin/suncat-tsmpirun -x LD_LIBRARY_PATH -wdir /scratch/qe576457_kUoDZ pw.x -npool 4 -in pw.inp

TID   HOST_NAME   COMMAND_LINE            STATUS            TERMINATION_TIME
00000 suncat0065 pw.x -npool 4 -i  Done                     05/02/2018 03:00:18
00001 suncat0065 pw.x -npool 4 -i  Done                     05/02/2018 03:00:18
00002 suncat0065 pw.x -npool 4 -i  Done                     05/02/2018 03:00:18
00003 suncat0065 pw.x -npool 4 -i  Done                     05/02/2018 03:00:18
00004 suncat0065 pw.x -npool 4 -i  Done                     05/02/2018 03:00:18
00005 suncat0065 pw.x -npool 4 -i  Done                     05/02/2018 03:00:18
00006 suncat0065 pw.x -npool 4 -i  Done                     05/02/2018 03:00:18
00007 suncat0065 pw.x -npool 4 -i  Done                     05/02/2018 03:00:18
00008 suncat0004 pw.x -npool 4 -i  Done                     05/02/2018 03:00:18
00009 suncat0004 pw.x -npool 4 -i  Done                     05/02/2018 03:00:18
00010 suncat0004 pw.x -npool 4 -i  Done                     05/02/2018 03:00:18
00011 suncat0004 pw.x -npool 4 -i  Done                     05/02/2018 03:00:18
00012 suncat0004 pw.x -npool 4 -i  Done                     05/02/2018 03:00:18
00013 suncat0004 pw.x -npool 4 -i  Done                     05/02/2018 03:00:18
00014 suncat0004 pw.x -npool 4 -i  Done                     05/02/2018 03:00:18
00015 suncat0004 pw.x -npool 4 -i  Done                     05/02/2018 03:00:18
00016 suncat0278 pw.x -npool 4 -i  Done                     05/02/2018 03:00:18
00017 suncat0278 pw.x -npool 4 -i  Done                     05/02/2018 03:00:18
00018 suncat0278 pw.x -npool 4 -i  Done                     05/02/2018 03:00:18
00019 suncat0278 pw.x -npool 4 -i  Done                     05/02/2018 03:00:18
00020 suncat0278 pw.x -npool 4 -i  Done                     05/02/2018 03:00:18
00021 suncat0278 pw.x -npool 4 -i  Done                     05/02/2018 03:00:18
00022 suncat0278 pw.x -npool 4 -i  Done                     05/02/2018 03:00:18
00023 suncat0278 pw.x -npool 4 -i  Done                     05/02/2018 03:00:18
00024 suncat0264 pw.x -npool 4 -i  Done                     05/02/2018 03:00:18
00025 suncat0264 pw.x -npool 4 -i  Done                     05/02/2018 03:00:18
00026 suncat0264 pw.x -npool 4 -i  Done                     05/02/2018 03:00:18
00027 suncat0264 pw.x -npool 4 -i  Done                     05/02/2018 03:00:18
00028 suncat0264 pw.x -npool 4 -i  Done                     05/02/2018 03:00:18
00029 suncat0264 pw.x -npool 4 -i  Done                     05/02/2018 03:00:18
00030 suncat0264 pw.x -npool 4 -i  Done                     05/02/2018 03:00:18
00031 suncat0264 pw.x -npool 4 -i  Done                     05/02/2018 03:00:18