     Program PWSCF v.5.1rc2 starts on  9May2018 at  6:20:37

     Current dimensions of program PWSCF are:
     Max number of different atomic species (ntypx) = 10
     Max number of k-points (npk) =  40000
     Max angular momentum in pseudopotentials (lmaxx) =  3
     Presently stress not available with electric field

     IMPORTANT: XC functional enforced from input :
     Exchange-correlation      = BEEF-VDW ( 1  4 27 13 2)
     Any further DFT definition will be discarded
     Please, verify this is what you really want

     bravais-lattice index     =            0
     lattice parameter (alat)  =       1.8897  a.u.
     unit-cell volume          =    4569.9960 (a.u.)^3
     number of atoms/cell      =           15
     number of atomic types    =            3
     number of electrons       =       198.00
     number of Kohn-Sham states=          109
     kinetic-energy cutoff     =      36.7493  Ry
     charge density cutoff     =     367.4932  Ry
     convergence threshold     =      1.0E-05
     mixing beta               =       0.3000
     number of iterations used =           10  plain     mixing
     Exchange-correlation      = BEEF-VDW ( 1  4 27 13 2)
     nstep                     =           50

     celldm(1)=   1.889726  celldm(2)=   0.000000  celldm(3)=   0.000000
     celldm(4)=   0.000000  celldm(5)=   0.000000  celldm(6)=   0.000000

     crystal axes: (cart. coord. in units of alat)
               a(1) = (   5.637663   0.000000   0.000000 )
               a(2) = (   2.818831   4.882359   0.000000 )
               a(3) = (   0.000000   0.000000  24.603132 )

     reciprocal axes: (cart. coord. in units 2 pi/alat)
               b(1) = (  0.177378 -0.102410  0.000000 )
               b(2) = (  0.000000  0.204819  0.000000 )
               b(3) = (  0.000000  0.000000  0.040645 )

     PseudoPot. # 1 for Pd read from file:
     /home/users/winther/src/pseudo/Pd.UPF
     MD5 check sum: 2d733d2bc2cbfd217af676df1668a4bc
     Pseudo is Ultrasoft + core correction, Zval = 16.0
     Generated by new atomic code, or converted to UPF format
     Using radial grid of  887 points,  6 beta functions with:
                l(1) =   0
                l(2) =   0
                l(3) =   1
                l(4) =   1
                l(5) =   2
                l(6) =   2
     Q(r) pseudized with  8 coefficients,  rinner =    1.130   1.130   1.130
                                                       1.130   1.130

     PseudoPot. # 2 for C  read from file:
     /home/users/winther/src/pseudo/C.UPF
     MD5 check sum: d1aef80898a10debaa0f26306b886e00
     Pseudo is Ultrasoft + core correction, Zval =  4.0
     Generated by new atomic code, or converted to UPF format
     Using radial grid of  721 points,  4 beta functions with:
                l(1) =   0
                l(2) =   0
                l(3) =   1
                l(4) =   1
     Q(r) pseudized with  8 coefficients,  rinner =    1.100   1.100   1.100

     PseudoPot. # 3 for H  read from file:
     /home/users/winther/src/pseudo/H.UPF
     MD5 check sum: 761ae9a214b05c3daf00ab9f6b793d6f
     Pseudo is Ultrasoft, Zval =  1.0
     Generated by new atomic code, or converted to UPF format
     Using radial grid of  615 points,  2 beta functions with:
                l(1) =   0
                l(2) =   0
     Q(r) pseudized with  8 coefficients,  rinner =    0.700

     vdW kernel table read from file vdW_kernel_table
     MD5 check sum: 095c7af220d748ca6e76c0b4c6cfb241

     atomic species   valence    mass     pseudopotential
        Pd1           16.00   106.42000     Pd( 1.00)
        C1             4.00    12.01100     C ( 1.00)
        H1             1.00     1.00800     H ( 1.00)

     No symmetry found

   Cartesian axes

     site n.     atom                  positions (alat units)
         1           Pd1 tau(   1) = (   0.0000000   0.0000000  10.0000000  )
         2           Pd1 tau(   2) = (   1.4094157   2.4411796  10.0000000  )
         3           Pd1 tau(   3) = (   2.8188314   0.0000000  10.0000000  )
         4           Pd1 tau(   4) = (   4.2282471   2.4411796  10.0000000  )
         5           Pd1 tau(   5) = (   5.6376627   3.2549061  12.3015662  )
         6           Pd1 tau(   6) = (   4.2282471   0.8137265  12.3015662  )
         7           Pd1 tau(   7) = (   2.8188314   3.2549061  12.3015662  )
         8           Pd1 tau(   8) = (   1.4094157   0.8137265  12.3015662  )
         9           Pd1 tau(   9) = (   2.8182870   1.6275640  14.6019814  )
        10           Pd1 tau(  10) = (   4.2286228   4.0680320  14.6028407  )
        11           Pd1 tau(  11) = (   5.6370610   1.6293053  14.6031189  )
        12           Pd1 tau(  12) = (   7.0460207   4.0694552  14.6019115  )
        13           C1  tau(  13) = (   1.4096245   0.8117669  15.8359852  )
        14           H1  tau(  14) = (   1.4096125   0.8144650  16.9074848  )
        15           H1  tau(  15) = (   2.8187157   1.6271519  16.2166538  )

     number of k points=    20  Fermi-Dirac smearing, width (Ry)=  0.0110
                       cart. coord. in units 2pi/alat
        k(    1) = (   0.0000000   0.0000000   0.0000000), wk =   0.0555556
        k(    2) = (   0.0000000   0.0341365   0.0000000), wk =   0.1111111
        k(    3) = (   0.0000000   0.0682730   0.0000000), wk =   0.1111111
        k(    4) = (   0.0000000  -0.1024095   0.0000000), wk =   0.0555556
        k(    5) = (   0.0295631  -0.0170683   0.0000000), wk =   0.1111111
        k(    6) = (   0.0295631   0.0170683   0.0000000), wk =   0.1111111
        k(    7) = (   0.0295631   0.0512048   0.0000000), wk =   0.1111111
        k(    8) = (   0.0295631  -0.1194778   0.0000000), wk =   0.1111111
        k(    9) = (   0.0295631  -0.0853413   0.0000000), wk =   0.1111111
        k(   10) = (   0.0295631  -0.0512048   0.0000000), wk =   0.1111111
        k(   11) = (   0.0591262  -0.0341365   0.0000000), wk =   0.1111111
        k(   12) = (   0.0591262  -0.0000000   0.0000000), wk =   0.1111111
        k(   13) = (   0.0591262   0.0341365   0.0000000), wk =   0.1111111
        k(   14) = (   0.0591262  -0.1365460   0.0000000), wk =   0.1111111
        k(   15) = (   0.0591262  -0.1024095   0.0000000), wk =   0.1111111
        k(   16) = (   0.0591262  -0.0682730   0.0000000), wk =   0.1111111
        k(   17) = (  -0.0886892   0.0512048   0.0000000), wk =   0.0555556
        k(   18) = (  -0.0886892   0.0853413   0.0000000), wk =   0.1111111
        k(   19) = (  -0.0886892   0.1194778   0.0000000), wk =   0.1111111
        k(   20) = (  -0.0886892  -0.0512048   0.0000000), wk =   0.0555556

     Largest allocated arrays     est. size (Mb)     dimensions
     Largest temporary arrays     est. size (Mb)     dimensions

     Initial potential from superposition of free atoms
     Check: negative starting charge=   -0.903674

     starting charge  191.99986, renormalised to  198.00000

     negative rho (up, down):  9.319E-01 0.000E+00

     *
     * You are using vdW-DF for exchange-correlation in this calculation.
     * Please cite the following three references that made this development
     * possible:
     *
     *   M. Dion, H. Rydberg, E. Schroder, D. C. Langreth, and
     *   B. I. Lundqvist, Phys. Rev. Lett. 92, 246401 (2004).
     *
     *   T. Thonhauser, V. R. Cooper, S. Li, A. Puzder, P. Hyldgaard, and
     *   D. C. Langreth, Phys. Rev. B 76, 125112 (2007).
     *
     *   G. Roman-Perez and J. M. Soler, Phys. Rev. Lett. 103, 096102 (2009).
     *
     *
     * If you are using vdW-DF2, please also cite:
     *
     *   K. Lee, E. D. Murray, L. Kong, B. I. Lundqvist, and
     *   D. C. Langreth, Phys. Rev. B 82, 081101(R) (2010).
     *
     *
     * If you are calculating the stress with vdW-DF, please also cite:
     *
     *   R. Sabatini, E. Kucukbenli, B. Kolb, T. Thonhauser, and
     *   S. de Gironcoli, J. Phys.: Condens. Matter 24, 424209 (2012).
     *

     Carrying out vdW-DF run using the following parameters:

     Nqs =      20    Nr_points =    1024   r_max =   100.000
     q_mesh =
               0.00001000     0.04494208     0.09755937     0.15916263
               0.23128650     0.31572767     0.41458969     0.53033537
               0.66584808     0.82450364     1.01025438     1.22772762
               1.48234092     1.78043706     2.12944203     2.53805004
               3.01644009     3.57652955     4.23227104     5.00000000

     Gradients computed in reciprocal space

     Adding external electric field

     Computed dipole along edir(3) :
        Dipole               -1.3378 Ry au,         -3.4003 Debye
        Dipole field         -0.0037 Ry au

        Potential amp.        0.3335 Ry
        Total length         45.3309 bohr

     Starting wfc are  150 randomized atomic wfcs

     Self-consistent Calculation

     iteration #  1     ecut=    36.75 Ry     beta=0.30
     Davidson diagonalization with overlap
     ethr =  1.00E-02,  avg # of iterations =  4.7

[...]

     total energy              =   -2367.30918361 Ry
     Harris-Foulkes estimate   =   -2414.47546266 Ry
     estimated scf accuracy    <      99.83520341 Ry

[...]

     End of self-consistent calculation

          k = 0.0000 0.0000 0.0000 ( 17231 PWs)   bands (ev):

   -49.7314 -49.3281 -49.1966 -49.1548 -49.0760 -48.7782 -48.7058 -48.6482
   -48.6030 -48.5528 -48.5307 -48.5071 -48.4275 -48.4141 -48.4003 -48.3876
   -48.3622 -48.3614 -48.3449 -48.2976 -48.2895 -48.2827 -48.2770 -48.2616
   -48.1222 -48.1158 -48.0996 -48.0902 -48.0840 -48.0447 -48.0442 -48.0178
   -47.9553 -47.9427 -47.9321 -47.8968 -10.9908  -5.7438  -4.6074  -4.2453
    -3.6571  -3.3733  -3.2564  -3.1546  -3.0964  -3.0714  -2.9917  -2.8925
    -2.8703  -2.7562  -2.7022  -2.5899  -2.5740  -2.3052  -2.2603  -2.0319
    -1.6540  -1.5338  -1.4074  -1.4005  -1.3448  -1.1917  -1.1390  -1.1010
    -1.0193  -1.0107  -0.9902  -0.7775  -0.7731  -0.7665  -0.6469  -0.4189
    -0.3330  -0.2655  -0.1558  -0.0944   0.1503   0.2029   0.3236   0.3488
     0.3619   0.4967   0.5011   0.7924   0.8318   0.8625   0.9314   0.9603
     0.9847   1.0762   1.0981   1.1023   1.1144   1.1900   1.3611   1.3729
     1.3796   1.5709   1.5779   1.5903   1.5955   2.0076   2.3207   2.7434
     3.4986   3.6921   4.1451   4.7418   4.8533

[...]

          k =-0.0887 0.0512 0.0000 ( 17240 PWs)   bands (ev):

[...]

     the Fermi energy is     1.3493 ev

!    total energy              =   -2411.31093683 Ry
     Harris-Foulkes estimate   =   -2411.31093873 Ry
     estimated scf accuracy    <       0.00000531 Ry

     The total energy is the sum of the following terms:

     one-electron contribution =  -20726.09484174 Ry
     hartree contribution      =   10415.55932266 Ry
     xc contribution           =    -395.28652121 Ry
     ewald contribution        =    8294.61298511 Ry
     electric field correction =       0.00013118 Ry
     smearing contrib. (-TS)   =      -0.10201283 Ry

     convergence has been achieved in  22 iterations

 BEEF-vdW xc energy contributions
           1 :   -344.039858502497
           2 :    314.396895371810
           3 :   -263.812508794233
           4 :    205.835807234163
           5 :   -153.594555970713
           6 :    115.513510943120
           7 :   -93.4893882599529
           8 :    83.8399163810837
           9 :   -80.2074556672164
          10 :    76.8614332714788
          11 :   -70.9067805389600
          12 :    62.6358988507508
          13 :   -54.2813635383761
          14 :    48.1407320409339
          15 :   -45.1636113563604
          16 :    44.6225789024295
          17 :   -44.8010567393027
          18 :    44.1061866356666
          19 :   -41.9066644473438
          20 :    38.6722494118491
          21 :   -35.4653771029825
          22 :    33.1902712202881
          23 :   -32.0754140650532
          24 :    31.6484903966086
          25 :   -31.1385954865165
          26 :    29.9974628992306
          27 :   -28.2078643720410
          28 :    26.2178425021470
          29 :   -24.5897390169642
          30 :    23.6169634121376
          31 :   -33.6780225793401
          32 :   -24.9023098953495

     Forces acting on atoms (Ry/au):

     negative rho (up, down):  9.433E-01 0.000E+00
     atom    1 type  1   force =     0.00050773    0.00030214   -0.00561633
     atom    2 type  1   force =     0.00021616   -0.00141972   -0.00243729
     atom    3 type  1   force =    -0.00110780    0.00090270   -0.00242259
     atom    4 type  1   force =     0.00002672   -0.00000176    0.00155492
     atom    5 type  1   force =    -0.00016906   -0.00008181   -0.00078366
     atom    6 type  1   force =    -0.00045308    0.00028303    0.00038349
     atom    7 type  1   force =    -0.00002776   -0.00051355    0.00049249
     atom    8 type  1   force =    -0.00182344   -0.00101695   -0.01553616
     atom    9 type  1   force =     0.00470208    0.00283882    0.02045773
     atom   10 type  1   force =    -0.00055975    0.01019030    0.02153909
     atom   11 type  1   force =     0.00899967   -0.00587742    0.02174704
     atom   12 type  1   force =     0.00089387    0.00026177   -0.00480023
     atom   13 type  2   force =     0.00370875    0.00288575   -0.05005811
     atom   14 type  3   force =    -0.02237806   -0.01302978    0.02962414
     atom   15 type  3   force =     0.00746396    0.00427648   -0.01414454

     Total force =     0.077326     Total SCF correction =     0.003050

     entering subroutine stress ...

     negative rho (up, down):  9.433E-01 0.000E+00
          total   stress  (Ry/bohr**3)                   (kbar)     P=   -5.46
  -0.00005623   0.00000863  -0.00001141         -8.27      1.27     -1.68
   0.00000863  -0.00006577  -0.00000641          1.27     -9.68     -0.94
  -0.00001141  -0.00000641   0.00001064         -1.68     -0.94      1.56

     BFGS Geometry Optimization

     number of scf cycles    =   1
     number of bfgs steps    =   0

     energy   new            =   -2411.3109368258 Ry

     new trust radius        =       0.0502781955 bohr
     new conv_thr            =       0.0000099958 Ry

ATOMIC_POSITIONS (crystal)
Pd1      0.000000000   0.000000000   0.406452311    0   0   0
Pd1     -0.000000000   0.500000000   0.406452311    0   0   0
Pd1      0.500000000   0.000000000   0.406452311    0   0   0
Pd1      0.500000000   0.500000000   0.406452311    0   0   0
Pd1      0.666666667   0.666666667   0.500000000    0   0   0
Pd1      0.666666667   0.166666667   0.500000000    0   0   0
Pd1      0.166666667   0.666666667   0.500000000    0   0   0
Pd1      0.166666667   0.166666667   0.500000000    0   0   0
Pd1      0.333512928   0.333663739   0.593940922
Pd1      0.332856703   0.834314793   0.593999107
Pd1      0.834200177   0.333075688   0.594014887
Pd1      0.833131199   0.833530178   0.593394822
C1       0.167096138   0.166578062   0.642580601
H1       0.165231571   0.165405679   0.687845797
H1       0.333812504   0.333735170   0.658825414

     Writing output data file calc.save
     Check: negative starting charge=   -0.903674
     NEW-OLD atomic charge density approx. for the potential
     Check: negative starting charge=   -0.903477

[...]

     energy   old            =   -2411.3109368258 Ry
     energy   new            =   -2411.3139196476 Ry

     CASE: energy  _new < energy  _old

[...]

     iteration #  1     ecut=    36.75 Ry     beta=0.30
     Davidson diagonalization with overlap
     c_bands:  1 eigenvalues not converged
     ethr =  1.00E-06,  avg # of iterations =  5.1

[...]

     WARNING: bfgs curvature condition failed, Theta= 0.903
     new trust radius        =       0.5498951076 bohr
     new conv_thr            =       0.0000001000 Ry

[...]

     Threshold (ethr) on eigenvalues was too large:
     Diagonalizing with lowered threshold

     Davidson diagonalization with overlap
     ethr =  1.67E-08,  avg # of iterations =  1.0

[...]

     Total force =     0.006666     Total SCF correction =     0.001400
     SCF correction compared to forces is large: reduce conv_thr to get better values

[...]

     iteration #  1     ecut=    36.75 Ry     beta=0.30
     Davidson diagonalization with overlap
     c_bands:  1 eigenvalues not converged
     c_bands:  1 eigenvalues not converged
     ethr =  1.00E-06,  avg # of iterations =  5.7

[...]

     Threshold (ethr) on eigenvalues was too large:
     Diagonalizing with lowered threshold

     Davidson diagonalization with overlap
     ethr =  5.63E-08,  avg # of iterations =  1.0

[...]

     Total force =     0.005114     Total SCF correction =     0.000455

[...]

     new trust radius        =       0.0242365492 bohr
     new conv_thr            =       0.0000001000 Ry

ATOMIC_POSITIONS (crystal)
Pd1      0.000000000   0.000000000   0.406452311    0   0   0
Pd1     -0.000000000   0.500000000   0.406452311    0   0   0
Pd1      0.500000000  -0.000000000   0.406452311    0   0   0
Pd1      0.500000000   0.500000000   0.406452311    0   0   0
Pd1      0.666666667   0.666666667   0.500000000    0   0   0
Pd1      0.666666667   0.166666667   0.500000000    0   0   0
Pd1      0.166666667   0.666666667   0.500000000    0   0   0
Pd1      0.166666667   0.166666667   0.500000000    0   0   0
Pd1      0.331021216   0.330530935   0.597190319
Pd1      0.332145114   0.832818138   0.596845263
Pd1      0.832916869   0.331845291   0.596896321
Pd1      0.831458050   0.832049647   0.591434211
C1       0.163441430   0.163624331   0.643069698
H1       0.162528578   0.162574179   0.687596874
H1       0.497890515   0.497857457   0.633041936

     Writing output data file calc.save
     Check: negative starting charge=   -0.904501
     NEW-OLD atomic charge density approx. for the potential
     Check: negative starting charge=   -0.904473

[...]

     Self-consistent Calculation

[...]

     total energy              =   -2411.36795696 Ry
     Harris-Foulkes estimate   =   -2411.36795692 Ry
     estimated scf accuracy    <       0.00000013 Ry

     iteration # 11     ecut=    36.75 Ry     beta=0.30
     Davidson diagonalization with overlap
     ethr =  6.47E-11,  avg # of iterations =  1.1

[...]

     negative rho (up, down):  9.447E-01 0.000E+00

     Adding external electric field

     Computed dipole along edir(3) :
        Dipole                0.1874 Ry au,          0.4764 Debye
        Dipole field          0.0005 Ry au

        Potential amp.       -0.0467 Ry
        Total length         45.3309 bohr

     End of self-consistent calculation

[...]

          k = 0.0591-0.0683 0.0000 ( 17183 PWs)   bands (ev):

[...]

          k =-0.0887-0.0512 0.0000 ( 17240 PWs)   bands (ev):

   -49.5961 -49.5023 -49.4851 -49.1028 -49.0638 -49.0592 -49.0537 -49.0247
   -49.0121 -48.5355 -48.5082 -48.4695 -48.4391 -48.4367 -48.4316 -48.4306
   -48.4297 -48.4195 -48.3986 -48.3613 -48.3456 -48.3020 -48.2695 -48.2563
   -48.2014 -48.1949 -48.1875 -48.1574 -48.1487 -48.1397 -48.1171 -48.0803
   -48.0654 -47.9721 -47.9660 -47.9619 -10.7173  -5.5849  -4.7896  -3.8850
    -3.3598  -3.1498  -2.9693  -2.6980  -2.6250  -2.4898  -2.4325  -2.4311
    -2.2745  -2.2691  -2.2237  -2.1453  -2.1299  -2.0560  -1.9937  -1.9326
    -1.7013  -1.6448  -1.6153  -1.5813  -1.4821  -1.4562  -1.3511  -1.3424
    -1.2656  -1.2152  -1.1070  -1.0713  -0.9425  -0.8364  -0.8276  -0.7669
    -0.6446  -0.6378  -0.5752  -0.5334  -0.5038  -0.4360  -0.3728  -0.2627
    -0.2265  -0.2134  -0.1753  -0.0985  -0.0977  -0.0017   0.0644   0.1100
     0.2505   0.4155   0.4292   0.4418   0.4434   0.5525   0.7985   0.8435
     1.0213   1.0234   1.0849   1.2524   1.2907   2.1156   2.1832   2.4657
     3.0362   3.9228   4.1373   4.4821   5.2380

     the Fermi energy is     1.2920 ev

!    total energy              =   -2411.36795696 Ry
     Harris-Foulkes estimate   =   -2411.36795719 Ry
     estimated scf accuracy    <       0.00000002 Ry

     The total energy is the sum of the following terms:

     one-electron contribution =  -20628.62014126 Ry
     hartree contribution      =   10366.29209637 Ry
     xc contribution           =    -395.30251255 Ry
     ewald contribution        =    8246.36270893 Ry
     electric field correction =       0.00009658 Ry
     smearing contrib. (-TS)   =      -0.10020503 Ry

     convergence has been achieved in  11 iterations

 BEEF-vdW xc energy contributions
           1 :   -344.059818520005
           2 :    314.425951161115
           3 :   -263.848321822770
           4 :    205.864774319152
           5 :   -153.604760956509
           6 :    115.504860816155
           7 :   -93.4695584346849
           8 :    83.8129074565803
           9 :   -80.1675176707269
          10 :    76.7998368850033
          11 :   -70.8255514648394
          12 :    62.5556409786377
          13 :   -54.2341154261757
          14 :    48.1495597666539
          15 :   -45.2230680181830
          16 :    44.6970822451029
          17 :   -44.8443213935835
          18 :    44.0890346221468
          19 :   -41.8355964356775
          20 :    38.5869230228094
          21 :   -35.4161390275070
          22 :    33.2087384112319
          23 :   -32.1551597988399
          24 :    31.7488088057626
          25 :   -31.2093675685991
          26 :    30.0093203829647
          27 :   -28.1685229383363
          28 :    26.1644960023588
          29 :   -24.5632586038318
          30 :    23.6349128355967
          31 :   -33.6795584283115
          32 :   -24.9052335186570

     Forces acting on atoms (Ry/au):

     negative rho (up, down):  9.447E-01 0.000E+00
     atom    1 type  1   force =     0.00131826    0.00075414   -0.00419098
     atom    2 type  1   force =     0.00004054   -0.00151883   -0.00419685
     atom    3 type  1   force =    -0.00129730    0.00078851   -0.00420105
     atom    4 type  1   force =     0.00006725    0.00002776    0.00051187
     atom    5 type  1   force =    -0.00309930   -0.00187044    0.00150577
     atom    6 type  1   force =    -0.00049245    0.00315723    0.00243350
     atom    7 type  1   force =     0.00238800   -0.00202689    0.00257158
     atom    8 type  1   force =    -0.00022408   -0.00008781    0.00103826
     atom    9 type  1   force =    -0.00125964    0.00007211    0.00120544
     atom   10 type  1   force =    -0.00180102    0.00019476    0.00035600
     atom   11 type  1   force =    -0.00054063   -0.00095118   -0.00014236
     atom   12 type  1   force =     0.00193186    0.00021876   -0.00004928
     atom   13 type  2   force =     0.00242163    0.00090085    0.00122499
     atom   14 type  3   force =     0.00030876    0.00016028    0.00109324
     atom   15 type  3   force =     0.00023811    0.00018075    0.00083989

     Total force =     0.004663     Total SCF correction =     0.000476
     SCF correction compared to forces is large: reduce conv_thr to get better values

     entering subroutine stress ...

     negative rho (up, down):  9.447E-01 0.000E+00
          total   stress  (Ry/bohr**3)                   (kbar)     P=   -5.51
  -0.00005682  -0.00000015   0.00000262         -8.36     -0.02      0.39
  -0.00000015  -0.00005707   0.00000138         -0.02     -8.40      0.20
   0.00000262   0.00000138   0.00000145          0.39      0.20      0.21

     number of scf cycles    =  50
     number of bfgs steps    =  49

     energy   old            =   -2411.3679117764 Ry
     energy   new            =   -2411.3679569617 Ry

     CASE: energy  _new < energy  _old

     new trust radius        =       0.0247310545 bohr

     The maximum number of steps has been reached.

     End of BFGS Geometry Optimization
Begin final coordinates

ATOMIC_POSITIONS (crystal)
Pd1      0.000000000   0.000000000   0.406452311    0   0   0
Pd1     -0.000000000   0.500000000   0.406452311    0   0   0
Pd1      0.500000000  -0.000000000   0.406452311    0   0   0
Pd1      0.500000000   0.500000000   0.406452311    0   0   0
Pd1      0.666666667   0.666666667   0.500000000    0   0   0
Pd1      0.666666667   0.166666667   0.500000000    0   0   0
Pd1      0.166666667   0.666666667   0.500000000    0   0   0
Pd1      0.166666667   0.166666667   0.500000000    0   0   0
Pd1      0.331499948   0.331224286   0.597126364
Pd1      0.332609297   0.832915172   0.597002133
Pd1      0.833026252   0.332393651   0.597054339
Pd1      0.832214858   0.832715313   0.591490389
C1       0.164382800   0.164329046   0.643089300
H1       0.163818460   0.163957268   0.687635227
H1       0.498154616   0.498117664   0.633228675
End final coordinates

     Writing output data file calc.save

     General routines

     Parallel routines

   This run was terminated on:   8:11:45   9May2018

   JOB DONE.