     Program PWSCF v.5.1rc2 (svn rev. 11289) starts on 18Jan2018 at  7:38:52

     Current dimensions of program PWSCF are:
     Max number of different atomic species (ntypx) = 10
     Max number of k-points (npk) =  40000
     Max angular momentum in pseudopotentials (lmaxx) =  3
     Presently stress not available with electric field

     IMPORTANT: XC functional enforced from input :
     Exchange-correlation      = BEEF-VDW ( 1  4 27 13 2)
     Any further DFT definition will be discarded
     Please, verify this is what you really want

     Subspace diagonalization in iterative solution of the eigenvalue problem:
     a serial algorithm will be used

     bravais-lattice index     =            0
     lattice parameter (alat)  =       1.8897  a.u.
     unit-cell volume          =    4228.3700 (a.u.)^3
     number of atoms/cell      =           13
     number of atomic types    =            2
     number of electrons       =       198.00
     number of Kohn-Sham states=          109
     kinetic-energy cutoff     =      36.7493  Ry
     charge density cutoff     =     367.4932  Ry
     convergence threshold     =      1.0E-05
     mixing beta               =       0.3000
     number of iterations used =           10  plain     mixing
     Exchange-correlation      = BEEF-VDW ( 1  4 27 13 2)
     nstep                     =           50

     celldm(1)=   1.889726  celldm(2)=   0.000000  celldm(3)=   0.000000
     celldm(4)=   0.000000  celldm(5)=   0.000000  celldm(6)=   0.000000

     crystal axes: (cart. coord. in units of alat)
               a(1) = (   5.440665   0.000000   0.000000 )
               a(2) = (   2.720332   4.711754   0.000000 )
               a(3) = (   0.000000   0.000000  24.442284 )

     reciprocal axes: (cart. coord. in units 2 pi/alat)
               b(1) = (  0.183801 -0.106118  0.000000 )
               b(2) = (  0.000000  0.212235  0.000000 )
               b(3) = (  0.000000  0.000000  0.040913 )

     PseudoPot. # 1 for Os read from file:
     /afs/slac.stanford.edu/u/if/mamunm/psp/gbrv1.5pbe/Os.UPF
     MD5 check sum: a3fb40a04f0c37c25c34bbc47164c9a8
     Pseudo is Ultrasoft + core correction, Zval = 16.0
     Generated by new atomic code, or converted to UPF format
     Using radial grid of  983 points,  8 beta functions with:
                l(1) =   0
                l(2) =   0
                l(3) =   1
                l(4) =   1
                l(5) =   2
                l(6) =   2
                l(7) =   3
                l(8) =   3
     Q(r) pseudized with  8 coefficients,  rinner =    1.150   1.150   1.150
                                                       1.150   1.150   1.150
                                                       1.150

     PseudoPot. # 2 for S  read from file:
     /afs/slac.stanford.edu/u/if/mamunm/psp/gbrv1.5pbe/S.UPF
     MD5 check sum: 88d86576ff6df21479756cfb9bdac1df
     Pseudo is Ultrasoft + core correction, Zval =  6.0
     Generated by new atomic code, or converted to UPF format
     Using radial grid of  907 points,  6 beta functions with:
                l(1) =   0
                l(2) =   0
                l(3) =   1
                l(4) =   1
                l(5) =   2
                l(6) =   2
     Q(r) pseudized with  8 coefficients,  rinner =    1.300   1.300   1.300
                                                       1.300   1.300

     vdW kernel table read from file vdW_kernel_table
     MD5 check sum: 095c7af220d748ca6e76c0b4c6cfb241

     atomic species   valence    mass     pseudopotential
        Os1           16.00   190.23000     Os( 1.00)
        S1             6.00    32.06000     S ( 1.00)

     No symmetry found

   Cartesian axes

     site n.     atom                  positions (alat units)
         1           Os1 tau(   1) = (   1.3601662   0.7852923  10.0000000  )
         2           Os1 tau(   2) = (   4.0804987   0.7852923  10.0000000  )
         3           Os1 tau(   3) = (   2.7203325   3.1411694  10.0000000  )
         4           Os1 tau(   4) = (   5.4406649   3.1411694  10.0000000  )
         5           Os1 tau(   5) = (   5.4406649   1.5705847  12.2211422  )
         6           Os1 tau(   6) = (   2.7203325   1.5705847  12.2211422  )
         7           Os1 tau(   7) = (   6.8008312   3.9264617  12.2211422  )
         8           Os1 tau(   8) = (   4.0804987   3.9264617  12.2211422  )
         9           Os1 tau(   9) = (   0.0000000   0.0000000  14.4422843  )
        10           Os1 tau(  10) = (   2.7203325   0.0000000  14.4422843  )
        11           Os1 tau(  11) = (   1.3601662   2.3558770  14.4422843  )
        12           Os1 tau(  12) = (   4.0804987   2.3558770  14.4422843  )
        13           S1  tau(  13) = (   0.0000000   0.0000000  16.9322843  )

     number of k points=    20  Fermi-Dirac smearing, width (Ry)=  0.0110
                       cart. coord. in units 2pi/alat
        k(    1) = (   0.0000000   0.0000000   0.0000000), wk =   0.0555556
        k(    2) = (   0.0000000   0.0353725   0.0000000), wk =   0.1111111
        k(    3) = (   0.0000000   0.0707451   0.0000000), wk =   0.1111111
        k(    4) = (   0.0000000  -0.1061176   0.0000000), wk =   0.0555556
        k(    5) = (   0.0306335  -0.0176863   0.0000000), wk =   0.1111111
        k(    6) = (   0.0306335   0.0176863   0.0000000), wk =   0.1111111
        k(    7) = (   0.0306335   0.0530588   0.0000000), wk =   0.1111111
        k(    8) = (   0.0306335  -0.1238039   0.0000000), wk =   0.1111111
        k(    9) = (   0.0306335  -0.0884313   0.0000000), wk =   0.1111111
        k(   10) = (   0.0306335  -0.0530588   0.0000000), wk =   0.1111111
        k(   11) = (   0.0612670  -0.0353725   0.0000000), wk =   0.1111111
        k(   12) = (   0.0612670   0.0000000   0.0000000), wk =   0.1111111
        k(   13) = (   0.0612670   0.0353725   0.0000000), wk =   0.1111111
        k(   14) = (   0.0612670  -0.1414901   0.0000000), wk =   0.1111111
        k(   15) = (   0.0612670  -0.1061176   0.0000000), wk =   0.1111111
        k(   16) = (   0.0612670  -0.0707451   0.0000000), wk =   0.1111111
        k(   17) = (  -0.0919005   0.0530588   0.0000000), wk =   0.0555556
        k(   18) = (  -0.0919005   0.0884313   0.0000000), wk =   0.1111111
        k(   19) = (  -0.0919005   0.1238039   0.0000000), wk =   0.1111111
        k(   20) = (  -0.0919005  -0.0530588   0.0000000), wk =   0.0555556

     Largest allocated arrays     est. size (Mb)     dimensions
     Largest temporary arrays     est. size (Mb)     dimensions

     Initial potential from superposition of free atoms
     Check: negative starting charge=   -1.495714

     starting charge  191.99953, renormalised to  198.00000

     negative rho (up, down):  1.542E+00 0.000E+00

     *
     * You are using vdW-DF for exchange-correlation in this calculation.
     * Please cite the following three references that made this development
     * possible:
     *
     *   M. Dion, H. Rydberg, E. Schroder, D. C. Langreth, and
     *   B. I. Lundqvist, Phys. Rev. Lett. 92, 246401 (2004).
     *
     *   T. Thonhauser, V. R. Cooper, S. Li, A. Puzder, P. Hyldgaard, and
     *   D. C. Langreth, Phys. Rev. B 76, 125112 (2007).
     *
     *   G. Roman-Perez and J. M. Soler, Phys. Rev. Lett. 103, 096102 (2009).
     *
     *
     * If you are using vdW-DF2, please also cite:
     *
     *   K. Lee, E. D. Murray, L. Kong, B. I. Lundqvist, and
     *   D. C. Langreth, Phys. Rev. B 82, 081101(R) (2010).
     *
     *
     * If you are calculating the stress with vdW-DF, please also cite:
     *
     *   R. Sabatini, E. Kucukbenli, B. Kolb, T. Thonhauser, and
     *   S. de Gironcoli, J. Phys.: Condens. Matter 24, 424209 (2012).
     *

     Carrying out vdW-DF run using the following parameters:

     Nqs =      20    Nr_points =    1024   r_max =   100.000
     q_mesh =
               0.00001000     0.04494208     0.09755937     0.15916263
               0.23128650     0.31572767     0.41458969     0.53033537
               0.66584808     0.82450364     1.01025438     1.22772762
               1.48234092     1.78043706     2.12944203     2.53805004
               3.01644009     3.57652955     4.23227104     5.00000000

     Gradients computed in reciprocal space

     Adding external electric field

     Computed dipole along edir(3) :
        Dipole               -1.6691 Ry au,         -4.2424 Debye
        Dipole field         -0.0050 Ry au

        Potential amp.        0.4468 Ry
        Total length         45.0345 bohr

     Starting wfc are  160 randomized atomic wfcs

     Self-consistent Calculation

     iteration #  1     ecut=    36.75 Ry     beta=0.30
     Davidson diagonalization with overlap
     ethr =  1.00E-02,  avg # of iterations =  2.0

[...]

     total energy              =   -2378.54116881 Ry
     Harris-Foulkes estimate   =   -2421.57587700 Ry
     estimated scf accuracy    <      89.14163819 Ry

[...]

     End of self-consistent calculation

          k = 0.0000 0.0000 0.0000 ( 15845 PWs)   bands (ev):

   -84.1041 -84.0503 -84.0342 -84.0342 -83.8002 -83.5980 -83.5723 -83.5472
   -83.5315 -83.5308 -83.5306 -83.5304 -43.7736 -43.7736 -43.7503 -43.5989
   -43.4792 -43.4791 -43.4762 -43.2588 -43.2587 -43.2081 -43.1736 -43.1630
   -43.1630 -43.0872 -43.0839 -43.0839 -43.0351 -42.9737 -42.9737 -42.8773
   -42.8025 -42.8021 -42.7755 -42.7364 -42.7362 -42.7258 -42.7177 -42.7176
   -42.6372 -42.6372 -42.6339 -42.6198 -42.4924 -42.4922 -42.4565 -42.4565
    -8.4543  -6.6603  -4.6730  -4.2699  -3.9379  -3.9379  -3.9296  -3.6015
    -3.6015  -3.5961  -3.0180  -3.0180  -3.0035  -2.7231  -2.7231  -2.7114
    -1.2552  -1.2551  -1.1596  -0.4863  -0.4020  -0.4020  -0.2740  -0.0856
     0.1056   0.1056   0.4465   0.6243   0.6243   0.6307   0.6307   0.6541
     0.9626   0.9626   0.9784   0.9786   1.4734   1.6321   1.6321   2.4899
     2.6587   2.6588   2.6786   2.7050   2.9601   2.9601   3.0552   3.0553
     3.6530   3.6913   3.6914   4.2163   4.2164   4.3942   4.5688   4.5688
     4.6115   4.6781   4.6782   4.8280   4.8281

[...]

          k =-0.0919 0.0531 0.0000 ( 15968 PWs)   bands (ev):

[...]

     the Fermi energy is     2.9851 ev

!    total energy              =   -2421.70034282 Ry
     Harris-Foulkes estimate   =   -2421.70033743 Ry
     estimated scf accuracy    <       0.00000783 Ry

     The total energy is the sum of the following terms:

     one-electron contribution =  -21718.56064685 Ry
     hartree contribution      =   10843.86672023 Ry
     xc contribution           =    -472.90540623 Ry
     ewald contribution        =    8925.97307490 Ry
     electric field correction =       0.00015122 Ry
     smearing contrib. (-TS)   =      -0.07423608 Ry

     convergence has been achieved in  21 iterations

 BEEF-vdW xc energy contributions
           1 :   -414.073819565351
           2 :    383.339489833101
           3 :   -329.152525464687
           4 :    263.382451416573
           5 :   -198.733711398481
           6 :    145.303117044326
           7 :   -108.359378046595
           8 :    87.8312166626783
           9 :   -79.4781121084947
          10 :    77.1325996995791
[...]

[...]

   This run was terminated on:   8: 5:58  18Jan2018

[...]

     Program PWSCF v.5.1rc2 (svn rev. 11289) starts on 18Jan2018 at  8: 6: 3

[...]

   This run was terminated on:   8:19: 5  18Jan2018

[...]

     Total force =     0.064235     Total SCF correction =     0.003840

[...]

     Program PWSCF v.5.1rc2 (svn rev. 11289) starts on 18Jan2018 at  8:32:23

     Current dimensions of program PWSCF are:
     Max number of different atomic species (ntypx) = 10
     Max number of k-points (npk) =  40000
     Max angular momentum in pseudopotentials (lmaxx) =  3
     Presently stress not available with electric field

     IMPORTANT: XC functional enforced from input :
     Exchange-correlation      = BEEF-VDW ( 1  4 27 13 2)
     Any further DFT definition will be discarded
     Please, verify this is what you really want

     Subspace diagonalization in iterative solution of the eigenvalue problem:
     a serial algorithm will be used

     bravais-lattice index     =            0
     lattice parameter (alat)  =       1.8897  a.u.
     unit-cell volume          =    4228.3700 (a.u.)^3
     number of atoms/cell      =           13
     number of atomic types    =            2
     number of electrons       =       198.00
     number of Kohn-Sham states=          109
     kinetic-energy cutoff     =      36.7493  Ry
     charge density cutoff     =     367.4932  Ry
     convergence threshold     =      1.0E-05
     mixing beta               =       0.3000
     number of iterations used =           10  plain     mixing
     Exchange-correlation      = BEEF-VDW ( 1  4 27 13 2)
     nstep                     =           50

     celldm(1)=   1.889726  celldm(2)=   0.000000  celldm(3)=   0.000000
     celldm(4)=   0.000000  celldm(5)=   0.000000  celldm(6)=   0.000000

     crystal axes: (cart. coord. in units of alat)
               a(1) = (   5.440665   0.000000   0.000000 )
               a(2) = (   2.720332   4.711754   0.000000 )
               a(3) = (   0.000000   0.000000  24.442284 )

     reciprocal axes: (cart. coord. in units 2 pi/alat)
               b(1) = (  0.183801 -0.106118  0.000000 )
               b(2) = (  0.000000  0.212235  0.000000 )
               b(3) = (  0.000000  0.000000  0.040913 )

     PseudoPot. # 1 for Os read from file:
     /afs/slac.stanford.edu/u/if/mamunm/psp/gbrv1.5pbe/Os.UPF
     MD5 check sum: a3fb40a04f0c37c25c34bbc47164c9a8
     Pseudo is Ultrasoft + core correction, Zval = 16.0
     Generated by new atomic code, or converted to UPF format
     Using radial grid of  983 points,  8 beta functions with:
                l(1) =   0
                l(2) =   0
                l(3) =   1
                l(4) =   1
                l(5) =   2
                l(6) =   2
                l(7) =   3
                l(8) =   3
     Q(r) pseudized with  8 coefficients,  rinner =    1.150   1.150   1.150
                                                       1.150   1.150   1.150
                                                       1.150

     PseudoPot. # 2 for S  read from file:
     /afs/slac.stanford.edu/u/if/mamunm/psp/gbrv1.5pbe/S.UPF
     MD5 check sum: 88d86576ff6df21479756cfb9bdac1df
     Pseudo is Ultrasoft + core correction, Zval =  6.0
     Generated by new atomic code, or converted to UPF format
     Using radial grid of  907 points,  6 beta functions with:
                l(1) =   0
                l(2) =   0
                l(3) =   1
                l(4) =   1
                l(5) =   2
                l(6) =   2
     Q(r) pseudized with  8 coefficients,  rinner =    1.300   1.300   1.300
                                                       1.300   1.300

     vdW kernel table read from file vdW_kernel_table
     MD5 check sum: 095c7af220d748ca6e76c0b4c6cfb241

     atomic species   valence    mass     pseudopotential
        Os1           16.00   190.23000     Os( 1.00)
        S1             6.00    32.06000     S ( 1.00)

     No symmetry found

   Cartesian axes

     site n.     atom                  positions (alat units)
         1           Os1 tau(   1) = (   1.3601662   0.7852923  10.0000000  )
         2           Os1 tau(   2) = (   4.0804987   0.7852923  10.0000000  )
         3           Os1 tau(   3) = (   2.7203325   3.1411694  10.0000000  )
         4           Os1 tau(   4) = (   5.4406649   3.1411694  10.0000000  )
         5           Os1 tau(   5) = (   5.4406649   1.5705847  12.2211422  )
         6           Os1 tau(   6) = (   2.7203325   1.5705847  12.2211422  )
         7           Os1 tau(   7) = (   6.8008312   3.9264617  12.2211422  )
         8           Os1 tau(   8) = (   4.0804987   3.9264617  12.2211422  )
         9           Os1 tau(   9) = (   5.4405960   0.0000303  14.4442265  )
        10           Os1 tau(  10) = (   5.4407094   4.6941460  14.3411739  )
        11           Os1 tau(  11) = (   6.7855565   2.3646698  14.3411280  )
        12           Os1 tau(  12) = (   4.0957461   2.3646048  14.3411143  )
        13           S1  tau(  13) = (   5.4406062   0.0000088  16.6297435  )

     number of k points=    20  Fermi-Dirac smearing, width (Ry)=  0.0110
                       cart. coord. in units 2pi/alat
        k(    1) = (   0.0000000   0.0000000   0.0000000), wk =   0.0555556
        k(    2) = (   0.0000000   0.0353725   0.0000000), wk =   0.1111111
        k(    3) = (   0.0000000   0.0707451   0.0000000), wk =   0.1111111
        k(    4) = (   0.0000000  -0.1061176   0.0000000), wk =   0.0555556
        k(    5) = (   0.0306335  -0.0176863   0.0000000), wk =   0.1111111
        k(    6) = (   0.0306335   0.0176863   0.0000000), wk =   0.1111111
        k(    7) = (   0.0306335   0.0530588   0.0000000), wk =   0.1111111
        k(    8) = (   0.0306335  -0.1238039   0.0000000), wk =   0.1111111
        k(    9) = (   0.0306335  -0.0884313   0.0000000), wk =   0.1111111
        k(   10) = (   0.0306335  -0.0530588   0.0000000), wk =   0.1111111
        k(   11) = (   0.0612670  -0.0353725   0.0000000), wk =   0.1111111
        k(   12) = (   0.0612670   0.0000000   0.0000000), wk =   0.1111111
        k(   13) = (   0.0612670   0.0353725   0.0000000), wk =   0.1111111
        k(   14) = (   0.0612670  -0.1414901   0.0000000), wk =   0.1111111
        k(   15) = (   0.0612670  -0.1061176   0.0000000), wk =   0.1111111
        k(   16) = (   0.0612670  -0.0707451   0.0000000), wk =   0.1111111
        k(   17) = (  -0.0919005   0.0530588   0.0000000), wk =   0.0555556
        k(   18) = (  -0.0919005   0.0884313   0.0000000), wk =   0.1111111
        k(   19) = (  -0.0919005   0.1238039   0.0000000), wk =   0.1111111
        k(   20) = (  -0.0919005  -0.0530588   0.0000000), wk =   0.0555556

     Largest allocated arrays     est. size (Mb)     dimensions
     Largest temporary arrays     est. size (Mb)     dimensions

     Initial potential from superposition of free atoms
     Check: negative starting charge=   -1.493573

     starting charge  191.99953, renormalised to  198.00000

[...]

     *
     * You are using vdW-DF for exchange-correlation in this calculation.
     * Please cite the following three references that made this development
     * possible:
     *
     *   M. Dion, H. Rydberg, E. Schroder, D. C. Langreth, and
     *   B. I. Lundqvist, Phys. Rev. Lett. 92, 246401 (2004).
     *
     *   T. Thonhauser, V. R. Cooper, S. Li, A. Puzder, P. Hyldgaard, and
     *   D. C. Langreth, Phys. Rev. B 76, 125112 (2007).
     *
     *   G. Roman-Perez and J. M. Soler, Phys. Rev. Lett. 103, 096102 (2009).
     *
     *
     * If you are using vdW-DF2, please also cite:
     *
     *   K. Lee, E. D. Murray, L. Kong, B. I. Lundqvist, and
     *   D. C. Langreth, Phys. Rev. B 82, 081101(R) (2010).
     *
     *
     * If you are calculating the stress with vdW-DF, please also cite:
     *
     *   R. Sabatini, E. Kucukbenli, B. Kolb, T. Thonhauser, and
     *   S. de Gironcoli, J. Phys.: Condens. Matter 24, 424209 (2012).
     *

     Carrying out vdW-DF run using the following parameters:

     Nqs =      20    Nr_points =    1024   r_max =   100.000
     q_mesh =
               0.00001000     0.04494208     0.09755937     0.15916263
               0.23128650     0.31572767     0.41458969     0.53033537
               0.66584808     0.82450364     1.01025438     1.22772762
               1.48234092     1.78043706     2.12944203     2.53805004
               3.01644009     3.57652955     4.23227104     5.00000000

     Gradients computed in reciprocal space

[...]

     Starting wfc are  160 randomized atomic wfcs

     Self-consistent Calculation

[...]

     total energy              =   -2421.75245906 Ry
     Harris-Foulkes estimate   =   -2421.75246415 Ry
     estimated scf accuracy    <       0.00002943 Ry

     iteration # 20     ecut=    36.75 Ry     beta=0.30
     Davidson diagonalization with overlap
     ethr =  1.49E-08,  avg # of iterations =  2.3

[...]

     negative rho (up, down):  1.514E+00 0.000E+00

     Adding external electric field

     Computed dipole along edir(3) :
        Dipole               -0.0570 Ry au,         -0.1449 Debye
        Dipole field         -0.0002 Ry au

        Potential amp.        0.0153 Ry
        Total length         45.0345 bohr

     End of self-consistent calculation

[...]

          k = 0.0613-0.0707 0.0000 ( 15922 PWs)   bands (ev):

[...]

          k =-0.0919-0.0531 0.0000 ( 15968 PWs)   bands (ev):

   -83.8791 -83.8586 -83.8364 -83.8265 -83.7307 -83.3733 -83.3568 -83.3433
   -83.3392 -83.3061 -83.2863 -83.2767 -43.4601 -43.4355 -43.3775 -43.3467
   -43.2774 -43.2691 -43.2233 -43.2122 -43.1628 -43.1597 -43.0022 -42.9903
   -42.9253 -42.8969 -42.8598 -42.8595 -42.7717 -42.7505 -42.6724 -42.6244
   -42.6174 -42.6078 -42.6020 -42.5837 -42.5787 -42.5704 -42.5385 -42.5117
   -42.5106 -42.4904 -42.4838 -42.4771 -42.4692 -42.3724 -42.3000 -42.2918
    -9.1978  -4.6026  -4.5721  -3.0494  -3.0141  -2.7032  -2.6933  -2.5658
    -2.5612  -2.5120  -2.5039  -1.9595  -1.9474  -1.6110  -1.4974  -1.3728
    -1.3373  -1.1373  -1.1229  -1.0425  -0.9603  -0.5306  -0.4797  -0.3833
    -0.1984  -0.0929   0.1199   0.2477   0.3064   0.4742   0.4843   0.5276
     0.6524   0.8313   0.8857   0.9031   1.0068   1.0113   1.0775   1.0925
     1.1254   1.2827   1.9515   2.0418   2.0591   2.2704   2.3789   2.5308
     2.6088   2.7913   2.8544   2.9481   3.0074   3.1716   3.3157   3.3840
     3.5919   3.9158   3.9188   3.9899   4.0341

     the Fermi energy is     3.2183 ev

!    total energy              =   -2421.75246118 Ry
     Harris-Foulkes estimate   =   -2421.75246305 Ry
     estimated scf accuracy    <       0.00000209 Ry

     The total energy is the sum of the following terms:

     one-electron contribution =  -22055.24147018 Ry
     hartree contribution      =   11013.29288138 Ry
     xc contribution           =    -473.30529381 Ry
     ewald contribution        =    9093.57089859 Ry
     electric field correction =       0.00000965 Ry
     smearing contrib. (-TS)   =      -0.06948681 Ry

     convergence has been achieved in  20 iterations

 BEEF-vdW xc energy contributions
           1 :   -414.478094389760
           2 :    383.882176792015
           3 :   -329.882027640049
           4 :    264.226198970132
           5 :   -199.533821874976
           6 :    145.891446310230
           7 :   -108.634942017557
           8 :    87.8062780265020
           9 :   -79.2733243375502
          10 :    76.9244216937486
          11 :   -75.0575721924714
          12 :    70.1182121471471
          13 :   -61.3191359764633
          14 :    50.1549759393886
          15 :   -39.2135029034798
          16 :    30.8426566261259
          17 :   -26.1912773450404
          18 :    24.9129885232725
          19 :   -25.5328551964804
          20 :    26.2156472624719
          21 :   -25.5619773376684
          22 :    23.0991991152512
          23 :   -19.3130983080134
          24 :    15.2721873590810
          25 :   -12.0624099817845
          26 :    10.2985681207672
          27 :   -9.91454084596398
          28 :    10.2840093470834
          29 :   -10.5773193281597
          30 :    10.1650423904603
          31 :   -39.4658671418958
          32 :   -30.0923636052414

     Forces acting on atoms (Ry/au):

     negative rho (up, down):  1.514E+00 0.000E+00
     atom    1 type  1   force =     0.00267784    0.00160866    0.02240767
     atom    2 type  1   force =    -0.00271050    0.00156232    0.02245122
     atom    3 type  1   force =    -0.00006037   -0.00312533    0.02243082
     atom    4 type  1   force =     0.00003495   -0.00002592    0.02158043
     atom    5 type  1   force =     0.00004091   -0.00285033   -0.01856651
     atom    6 type  1   force =    -0.00003835    0.00003827   -0.03628463
     atom    7 type  1   force =     0.00249178    0.00137172   -0.01856935
     atom    8 type  1   force =    -0.00237956    0.00135500   -0.01854103
     atom    9 type  1   force =    -0.00002051    0.00002128   -0.00017139
     atom   10 type  1   force =     0.00000639    0.00067095    0.00081283
     atom   11 type  1   force =     0.00051816   -0.00029755    0.00074182
     atom   12 type  1   force =    -0.00055534   -0.00033217    0.00079375
     atom   13 type  2   force =    -0.00000540    0.00000309    0.00091437

     Total force =     0.066196     Total SCF correction =     0.007909
     SCF correction compared to forces is large: reduce conv_thr to get better values

     entering subroutine stress ...

     negative rho (up, down):  1.514E+00 0.000E+00
          total   stress  (Ry/bohr**3)                   (kbar)     P=  -19.34
  -0.00014463  -0.00000001  -0.00000001        -21.28     -0.00     -0.00
  -0.00000001  -0.00014467   0.00000004         -0.00    -21.28      0.01
  -0.00000001   0.00000004  -0.00010514         -0.00      0.01    -15.47

 !ASE

     Writing output data file calc.save

     General routines

     Parallel routines

   This run was terminated on:   8:38:51  18Jan2018

   JOB DONE.
Job  /afs/slac/g/suncat/bin/suncat-tsmpirun -x LD_LIBRARY_PATH -wdir /scratch/qe842464_ofUts pw.x -in pw.inp

TID   HOST_NAME   COMMAND_LINE            STATUS            TERMINATION_TIME
00000 suncat2041 pw.x -in pw.inp   Done                     01/18/2018 08:38:51
00001 suncat2041 pw.x -in pw.inp   Done                     01/18/2018 08:38:51
00002 suncat2041 pw.x -in pw.inp   Done                     01/18/2018 08:38:51
00003 suncat2041 pw.x -in pw.inp   Done                     01/18/2018 08:38:51
00004 suncat2041 pw.x -in pw.inp   Done                     01/18/2018 08:38:51
00005 suncat2041 pw.x -in pw.inp   Done                     01/18/2018 08:38:51
00006 suncat2041 pw.x -in pw.inp   Done                     01/18/2018 08:38:51
00007 suncat2041 pw.x -in pw.inp   Done                     01/18/2018 08:38:51
00008 suncat2041 pw.x -in pw.inp   Done                     01/18/2018 08:38:51
00009 suncat2041 pw.x -in pw.inp   Done                     01/18/2018 08:38:51
00010 suncat2041 pw.x -in pw.inp   Done                     01/18/2018 08:38:51
00011 suncat2041 pw.x -in pw.inp   Done                     01/18/2018 08:38:51
00012 suncat2041 pw.x -in pw.inp   Done                     01/18/2018 08:38:51
00013 suncat2041 pw.x -in pw.inp   Done                     01/18/2018 08:38:51
00014 suncat2041 pw.x -in pw.inp   Done                     01/18/2018 08:38:51
00015 suncat2041 pw.x -in pw.inp   Done                     01/18/2018 08:38:51
00016 suncat2040 pw.x -in pw.inp   Done                     01/18/2018 08:38:51
00017 suncat2040 pw.x -in pw.inp   Done                     01/18/2018 08:38:51
00018 suncat2040 pw.x -in pw.inp   Done                     01/18/2018 08:38:51
00019 suncat2040 pw.x -in pw.inp   Done                     01/18/2018 08:38:51
00020 suncat2040 pw.x -in pw.inp   Done                     01/18/2018 08:38:51
00021 suncat2040 pw.x -in pw.inp   Done                     01/18/2018 08:38:51
00022 suncat2040 pw.x -in pw.inp   Done                     01/18/2018 08:38:51
00023 suncat2040 pw.x -in pw.inp   Done                     01/18/2018 08:38:51
00024 suncat2040 pw.x -in pw.inp   Done                     01/18/2018 08:38:51
00025 suncat2040 pw.x -in pw.inp   Done                     01/18/2018 08:38:51
00026 suncat2040 pw.x -in pw.inp   Done                     01/18/2018 08:38:51
00027 suncat2040 pw.x -in pw.inp   Done                     01/18/2018 08:38:51
00028 suncat2040 pw.x -in pw.inp   Done                     01/18/2018 08:38:51
00029 suncat2040 pw.x -in pw.inp   Done                     01/18/2018 08:38:51
00030 suncat2040 pw.x -in pw.inp   Done                     01/18/2018 08:38:51
00031 suncat2040 pw.x -in pw.inp   Done                     01/18/2018 08:38:51