     Program PWSCF v.5.1rc2 (svn rev. 11289) starts on 22Apr2018 at 20:30:28

     Current dimensions of program PWSCF are:
     Max number of different atomic species (ntypx) = 10
     Max number of k-points (npk) =  40000
     Max angular momentum in pseudopotentials (lmaxx) =  3
     Presently stress not available with electric field

     IMPORTANT: XC functional enforced from input :
     Exchange-correlation      = BEEF-VDW ( 1  4 27 13 2)
     Any further DFT definition will be discarded
     Please, verify this is what you really want

     Subspace diagonalization in iterative solution of the eigenvalue problem:
     a serial algorithm will be used

     bravais-lattice index     =            0
     lattice parameter (alat)  =       1.8897  a.u.
     unit-cell volume          =    6116.8020 (a.u.)^3
     number of atoms/cell      =           14
     number of atomic types    =            3
     number of electrons       =       137.00
     number of Kohn-Sham states=           78
     kinetic-energy cutoff     =      36.7493  Ry
     charge density cutoff     =     367.4932  Ry
     convergence threshold     =      1.0E-05
     mixing beta               =       0.3000
     number of iterations used =           10  plain     mixing
     Exchange-correlation      = BEEF-VDW ( 1  4 27 13 2)
     nstep                     =           50

     celldm(1)=   1.889726  celldm(2)=   0.000000  celldm(3)=   0.000000
     celldm(4)=   0.000000  celldm(5)=   0.000000  celldm(6)=   0.000000

     crystal axes: (cart. coord. in units of alat)
               a(1) = (   6.437465   0.000000   0.000000 )
               a(2) = (   3.218732   5.575008   0.000000 )
               a(3) = (   0.000000   0.000000  25.256168 )

     reciprocal axes: (cart. coord. in units 2 pi/alat)
               b(1) = (  0.155341 -0.089686  0.000000 )
               b(2) = (  0.000000  0.179372  0.000000 )
               b(3) = (  0.000000  0.000000  0.039594 )

     PseudoPot. # 1 for Sc read from file:
     /u/if/mamunm/psp/gbrv1.5pbe/Sc.UPF
     MD5 check sum: db30a2753ba66ef00f23801d899b7e7f
     Pseudo is Ultrasoft + core correction, Zval = 11.0
     Generated by new atomic code, or converted to UPF format
     Using radial grid of  849 points,  6 beta functions with:
                l(1) =   0
                l(2) =   0
                l(3) =   1
                l(4) =   1
                l(5) =   2
                l(6) =   2
     Q(r) pseudized with  6 coefficients,  rinner =    1.200   1.200   1.200
                                                       1.200   1.200

     PseudoPot. # 2 for C  read from file:
     /u/if/mamunm/psp/gbrv1.5pbe/C.UPF
     MD5 check sum: d1aef80898a10debaa0f26306b886e00
     Pseudo is Ultrasoft + core correction, Zval =  4.0
     Generated by new atomic code, or converted to UPF format
     Using radial grid of  721 points,  4 beta functions with:
                l(1) =   0
                l(2) =   0
                l(3) =   1
                l(4) =   1
     Q(r) pseudized with  8 coefficients,  rinner =    1.100   1.100   1.100

     PseudoPot. # 3 for H  read from file:
     /u/if/mamunm/psp/gbrv1.5pbe/H.UPF
     MD5 check sum: 761ae9a214b05c3daf00ab9f6b793d6f
     Pseudo is Ultrasoft, Zval =  1.0
     Generated by new atomic code, or converted to UPF format
     Using radial grid of  615 points,  2 beta functions with:
                l(1) =   0
                l(2) =   0
     Q(r) pseudized with  8 coefficients,  rinner =    0.700

     vdW kernel table read from file vdW_kernel_table
     MD5 check sum: 095c7af220d748ca6e76c0b4c6cfb241

     atomic species   valence    mass     pseudopotential
        Sc1           11.00    44.95591     Sc( 1.00)
        C1             4.00    12.01100     C ( 1.00)
        H1             1.00     1.00800     H ( 1.00)

     No symmetry found

   Cartesian axes

     site n.     atom                  positions (alat units)
         1           Sc1 tau(   1) = (   1.6093662   0.9291680  10.0000000  )
         2           Sc1 tau(   2) = (   4.8280986   0.9291680  10.0000000  )
         3           Sc1 tau(   3) = (   3.2187324   3.7166720  10.0000000  )
         4           Sc1 tau(   4) = (   6.4374648   3.7166720  10.0000000  )
         5           Sc1 tau(   5) = (   6.4374648   1.8583360  12.6280840  )
         6           Sc1 tau(   6) = (   3.2187324   1.8583360  12.6280840  )
         7           Sc1 tau(   7) = (   8.0468310   4.6458400  12.6280840  )
         8           Sc1 tau(   8) = (   4.8280986   4.6458400  12.6280840  )
         9           Sc1 tau(   9) = (   0.0000000   0.0000000  15.2561680  )
        10           Sc1 tau(  10) = (   3.2187324   0.0000000  15.2561680  )
        11           Sc1 tau(  11) = (   1.6093662   2.7875040  15.2561680  )
        12           Sc1 tau(  12) = (   4.8280986   2.7875040  15.2561680  )
        13           C1  tau(  13) = (   3.2187324   1.8583360  16.8551680  )
        14           H1  tau(  14) = (   3.2187324   1.8583360  17.9551680  )

     number of k points=    20  Fermi-Dirac smearing, width (Ry)=  0.0110
                       cart. coord. in units 2pi/alat
        k(    1) = (   0.0000000   0.0000000   0.0000000), wk =   0.0555556
        k(    2) = (   0.0000000   0.0298953   0.0000000), wk =   0.1111111
        k(    3) = (   0.0000000   0.0597906   0.0000000), wk =   0.1111111
        k(    4) = (   0.0000000  -0.0896860   0.0000000), wk =   0.0555556
        k(    5) = (   0.0258901  -0.0149477   0.0000000), wk =   0.1111111
        k(    6) = (   0.0258901   0.0149477   0.0000000), wk =   0.1111111
        k(    7) = (   0.0258901   0.0448430   0.0000000), wk =   0.1111111
        k(    8) = (   0.0258901  -0.1046336   0.0000000), wk =   0.1111111
        k(    9) = (   0.0258901  -0.0747383   0.0000000), wk =   0.1111111
        k(   10) = (   0.0258901  -0.0448430   0.0000000), wk =   0.1111111
        k(   11) = (   0.0517802  -0.0298953   0.0000000), wk =   0.1111111
        k(   12) = (   0.0517802   0.0000000   0.0000000), wk =   0.1111111
        k(   13) = (   0.0517802   0.0298953   0.0000000), wk =   0.1111111
        k(   14) = (   0.0517802  -0.1195813   0.0000000), wk =   0.1111111
        k(   15) = (   0.0517802  -0.0896860   0.0000000), wk =   0.1111111
        k(   16) = (   0.0517802  -0.0597906   0.0000000), wk =   0.1111111
        k(   17) = (  -0.0776703   0.0448430   0.0000000), wk =   0.0555556
        k(   18) = (  -0.0776703   0.0747383   0.0000000), wk =   0.1111111
        k(   19) = (  -0.0776703   0.1046336   0.0000000), wk =   0.1111111
        k(   20) = (  -0.0776703  -0.0448430   0.0000000), wk =   0.0555556

     Largest allocated arrays     est. size (Mb)     dimensions
     Largest temporary arrays     est. size (Mb)     dimensions

     Initial potential from superposition of free atoms
     Check: negative starting charge=   -0.000265

     starting charge  136.97112, renormalised to  137.00000

     negative rho (up, down):  2.650E-04 0.000E+00

     *
     * You are using vdW-DF for exchange-correlation in this calculation.
     * Please cite the following three references that made this development
     * possible:
     *
     *   M. Dion, H. Rydberg, E. Schroder, D. C. Langreth, and
     *   B. I. Lundqvist, Phys. Rev. Lett. 92, 246401 (2004).
     *
     *   T. Thonhauser, V. R. Cooper, S. Li, A. Puzder, P. Hyldgaard, and
     *   D. C. Langreth, Phys. Rev. B 76, 125112 (2007).
     *
     *   G. Roman-Perez and J. M. Soler, Phys. Rev. Lett. 103, 096102 (2009).
     *
     *
     * If you are using vdW-DF2, please also cite:
     *
     *   K. Lee, E. D. Murray, L. Kong, B. I. Lundqvist, and
     *   D. C. Langreth, Phys. Rev. B 82, 081101(R) (2010).
     *
     *
     * If you are calculating the stress with vdW-DF, please also cite:
     *
     *   R. Sabatini, E. Kucukbenli, B. Kolb, T. Thonhauser, and
     *   S. de Gironcoli, J. Phys.: Condens. Matter 24, 424209 (2012).
     *

     Carrying out vdW-DF run using the following parameters:

     Nqs =      20    Nr_points =    1024   r_max =   100.000
     q_mesh =
               0.00001000     0.04494208     0.09755937     0.15916263
               0.23128650     0.31572767     0.41458969     0.53033537
               0.66584808     0.82450364     1.01025438     1.22772762
               1.48234092     1.78043706     2.12944203     2.53805004
               3.01644009     3.57652955     4.23227104     5.00000000

     Gradients computed in reciprocal space

     Adding external electric field

     Computed dipole along edir(3) :
        Dipole               -0.0084 Ry au,         -0.0215 Debye
        Dipole field         -0.0000 Ry au

        Potential amp.        0.0016 Ry
        Total length         46.5341 bohr

     Starting wfc are  161 randomized atomic wfcs

     Self-consistent Calculation

     iteration #  1     ecut=    36.75 Ry     beta=0.30
     Davidson diagonalization with overlap
     ethr =  1.00E-02,  avg # of iterations =  2.0

[...]

     total energy              =   -1147.52048828 Ry
     Harris-Foulkes estimate   =   -1151.00073980 Ry
     estimated scf accuracy    <       7.48921735 Ry

[...]

     End of self-consistent calculation

          k = 0.0000 0.0000 0.0000 ( 23031 PWs)   bands (ev):

   -49.7104 -49.6205 -49.5790 -49.5714 -49.5712 -49.4119 -49.3784 -49.3783
   -49.1591 -49.1160 -49.1154 -49.1120 -28.4225 -28.3361 -28.3359 -28.3289
   -28.3184 -28.3184 -28.3000 -28.2478 -28.2384 -28.2381 -28.1967 -28.0737
   -28.0736 -28.0720 -28.0660 -28.0659 -27.9991 -27.9942 -27.9942 -27.9676
   -27.9676 -27.9064 -27.8799 -27.8797 -27.8732 -27.7757 -27.7756 -27.7118
   -27.6967 -27.6957 -27.6951 -27.6461 -27.6393 -27.6390 -27.5656 -27.5656
    -9.6699  -4.4784  -3.7499  -2.8025  -1.7549  -1.2784  -1.2783  -1.1533
    -1.0795  -1.0795  -0.9649  -0.8935  -0.8935  -0.4424  -0.2753  -0.2752
    -0.1990  -0.1508  -0.1507   0.1016   0.2671   0.2671   0.4244   0.8278
     0.9516   0.9592   0.9592   1.1442   1.4300   1.4301

[...]

          k =-0.0777 0.0448 0.0000 ( 23032 PWs)   bands (ev):

[...]

     the Fermi energy is     0.3321 ev

!    total energy              =   -1150.39485035 Ry
     Harris-Foulkes estimate   =   -1150.39486887 Ry
     estimated scf accuracy    <       0.00000932 Ry

     The total energy is the sum of the following terms:

     one-electron contribution =   -7321.63577504 Ry
     hartree contribution      =    3644.20453543 Ry
     xc contribution           =    -170.70328212 Ry
     ewald contribution        =    2697.86805038 Ry
     electric field correction =       0.00008822 Ry
     smearing contrib. (-TS)   =      -0.12846722 Ry

     convergence has been achieved in  18 iterations

 BEEF-vdW xc energy contributions
           1 :   -144.616724227594
           2 :    127.243090059027
           3 :   -100.184924103463
           4 :    73.9024222546864
           5 :   -55.7152678043774
           6 :    46.8739166672646
           7 :   -43.8451410668048
           8 :    42.0223374506697
           9 :   -38.8802899104291
          10 :    34.7054717897186
          11 :   -31.1515657371891
          12 :    29.2766925973102
          13 :   -28.6572362014261
          14 :    27.9963107041119
          15 :   -26.4004514884132
          16 :    24.1082717157004
          17 :   -22.1142657998845
          18 :    21.1618183875683
          19 :   -21.0804746364976
          20 :    21.0211450705770
          21 :   -20.2738551285178
          22 :    18.8709605926649
          23 :   -17.4689396437057
          24 :    16.6964588744252
          25 :   -16.6013703365097
          26 :    16.6689077361366
          27 :   -16.3340303595646
          28 :    15.4846804545670
          29 :   -14.5113232212521
          30 :    13.9024466954248
          31 :   -17.1392535321480
          32 :   -12.2855630829429

     Forces acting on atoms (Ry/au):

     negative rho (up, down):  1.972E-04 0.000E+00
     atom    1 type  1   force =     0.00004903    0.00004279    0.00259220
     atom    2 type  1   force =    -0.00005974    0.00000696    0.00282240
     atom    3 type  1   force =    -0.00003658   -0.00005489    0.00269390
     atom    4 type  1   force =     0.00003624    0.00000964    0.00284476
     atom    5 type  1   force =     0.00004622   -0.00351263    0.00237241
     atom    6 type  1   force =    -0.00003535    0.00000490   -0.01755892
     atom    7 type  1   force =     0.00304268    0.00172850    0.00240556
     atom    8 type  1   force =    -0.00305202    0.00178344    0.00232806
     atom    9 type  1   force =    -0.00002980   -0.00000873    0.00543273
     atom   10 type  1   force =     0.00002946    0.05018464    0.03373284
     atom   11 type  1   force =     0.04347338   -0.02507261    0.03372471
     atom   12 type  1   force =    -0.04346288   -0.02510535    0.03377238
     atom   13 type  2   force =     0.00000037   -0.00000630   -0.10398137
     atom   14 type  3   force =    -0.00000099   -0.00000035   -0.00318168

     Total force =     0.147729     Total SCF correction =     0.003062

     entering subroutine stress ...

     negative rho (up, down):  1.972E-04 0.000E+00
          total   stress  (Ry/bohr**3)                   (kbar)     P=   -3.71
  -0.00000379   0.00000000   0.00000000         -0.56      0.00      0.00
   0.00000000  -0.00000379  -0.00000000          0.00     -0.56     -0.00
   0.00000000  -0.00000000  -0.00006805          0.00     -0.00    -10.01

     BFGS Geometry Optimization

     number of scf cycles    =   1
     number of bfgs steps    =   0

     energy   new            =   -1150.3948503492 Ry

     new trust radius        =       0.1039813717 bohr
     new conv_thr            =       0.0000099958 Ry

ATOMIC_POSITIONS (crystal)
Sc1      0.166666667   0.166666667   0.395942884    0   0   0
Sc1      0.666666667   0.166666667   0.395942884    0   0   0
Sc1      0.166666667   0.666666667   0.395942884    0   0   0
Sc1      0.666666667   0.666666667   0.395942884    0   0   0
Sc1      0.833333333   0.333333333   0.500000000    0   0   0
Sc1      0.333333333   0.333333333   0.500000000    0   0   0
Sc1      0.833333333   0.833333333   0.500000000    0   0   0
Sc1      0.333333333   0.833333333   0.500000000    0   0   0
Sc1     -0.000002035  -0.000000829   0.604170944
Sc1      0.497620670   0.004763503   0.604763899
Sc1      0.004763571   0.497620119   0.604763729
Sc1      0.497618727   0.497617011   0.604764728
C1       0.333333662   0.333332735   0.665189724
H1       0.333333269   0.333333300   0.710855436

     Writing output data file calc.save
     Check: negative starting charge=   -0.000265
     NEW-OLD atomic charge density approx. for the potential
     Check: negative starting charge=   -0.000262

[...]

     energy   old            =   -1150.3948503492 Ry
     energy   new            =   -1150.4120907877 Ry

     CASE: energy  _new < energy  _old

[...]

     iteration #  1     ecut=    36.75 Ry     beta=0.30
     Davidson diagonalization with overlap
     c_bands:  1 eigenvalues not converged
     ethr =  1.00E-06,  avg # of iterations = 18.1

[...]

     iteration #  1     ecut=    36.75 Ry     beta=0.30
     Davidson diagonalization with overlap
     c_bands:  1 eigenvalues not converged
     c_bands:  1 eigenvalues not converged
     ethr =  1.00E-06,  avg # of iterations = 15.7

[...]

     Threshold (ethr) on eigenvalues was too large:
     Diagonalizing with lowered threshold

     Davidson diagonalization with overlap
     ethr =  8.21E-08,  avg # of iterations =  9.1

[...]

     Total force =     0.008506     Total SCF correction =     0.000437

[...]

     number of scf cycles    =  16
     number of bfgs steps    =  15

     energy   old            =   -1150.4500082771 Ry
     energy   new            =   -1150.4501159959 Ry

     CASE: energy  _new < energy  _old

     new trust radius        =       0.0128872952 bohr
     new conv_thr            =       0.0000001000 Ry

ATOMIC_POSITIONS (crystal)
Sc1      0.166666667   0.166666667   0.395942884    0   0   0
Sc1      0.666666667   0.166666667   0.395942884    0   0   0
Sc1      0.166666667   0.666666667   0.395942884    0   0   0
Sc1      0.666666667   0.666666667   0.395942884    0   0   0
Sc1      0.833333333   0.333333333   0.500000000    0   0   0
Sc1      0.333333333   0.333333333   0.500000000    0   0   0
Sc1      0.833333333   0.833333333   0.500000000    0   0   0
Sc1      0.333333333   0.833333333   0.500000000    0   0   0
Sc1      0.000001087  -0.000001741   0.603666697
Sc1      0.496177198   0.007652696   0.606225413
Sc1      0.007652754   0.496174791   0.606225693
Sc1      0.496172927   0.496168487   0.606225000
C1       0.333334160   0.333333966   0.652500319
H1       0.333334843   0.333331919   0.696292712

     Writing output data file calc.save
     Check: negative starting charge=   -0.000270
     NEW-OLD atomic charge density approx. for the potential
     Check: negative starting charge=   -0.000271

[...]

     Self-consistent Calculation

[...]

     total energy              =   -1150.45016437 Ry
     Harris-Foulkes estimate   =   -1150.45016503 Ry
     estimated scf accuracy    <       0.00000032 Ry

     iteration # 10     ecut=    36.75 Ry     beta=0.30
     Davidson diagonalization with overlap
     ethr =  2.33E-10,  avg # of iterations =  5.3

[...]

     negative rho (up, down):  1.973E-04 0.000E+00

     Adding external electric field

     Computed dipole along edir(3) :
        Dipole               -0.0286 Ry au,         -0.0727 Debye
        Dipole field         -0.0001 Ry au

        Potential amp.        0.0055 Ry
        Total length         46.5341 bohr

     End of self-consistent calculation

[...]

          k = 0.0518-0.0598 0.0000 ( 23012 PWs)   bands (ev):

[...]

          k =-0.0777-0.0448 0.0000 ( 23032 PWs)   bands (ev):

   -49.5187 -49.3933 -49.3863 -49.3676 -49.3633 -49.0935 -49.0766 -49.0660
   -48.9712 -48.9701 -48.9493 -48.9480 -28.2426 -28.0901 -28.0702 -28.0639
   -28.0604 -28.0574 -28.0534 -28.0328 -28.0276 -27.9617 -27.9576 -27.9335
   -27.9308 -27.8703 -27.8290 -27.8232 -27.8097 -27.7880 -27.7474 -27.6751
   -27.6711 -27.6555 -27.6518 -27.6458 -27.5892 -27.5558 -27.5551 -27.5416
   -27.5381 -27.5329 -27.5322 -27.5276 -27.4928 -27.4634 -27.4324 -27.4284
    -9.8837  -3.8859  -2.9506  -2.7562  -2.0947  -1.6430  -1.3133  -1.1016
    -0.8980  -0.8670  -0.5304  -0.3624  -0.3456  -0.2693   0.2875   0.3049
     0.3122   0.3656   0.3774   0.4522   0.6111   0.6347   0.6458   0.7160
     0.7645   0.8889   0.9731   1.0489   1.0741   1.0847

     the Fermi energy is     0.5346 ev

!    total energy              =   -1150.45016437 Ry
     Harris-Foulkes estimate   =   -1150.45016446 Ry
     estimated scf accuracy    <       0.00000003 Ry

     The total energy is the sum of the following terms:

     one-electron contribution =   -7348.04494144 Ry
     hartree contribution      =    3658.35350534 Ry
     xc contribution           =    -170.92259597 Ry
     ewald contribution        =    2710.29127002 Ry
     electric field correction =       0.00000168 Ry
     smearing contrib. (-TS)   =      -0.12740401 Ry

     convergence has been achieved in  10 iterations

 BEEF-vdW xc energy contributions
           1 :   -144.832762470306
           2 :    127.504170748370
           3 :   -100.491471101365
           4 :    74.2085790252782
           5 :   -55.9531091420076
           6 :    46.9862333725079
           7 :   -43.8181417227769
           8 :    41.8973306739921
           9 :   -38.7304789788044
          10 :    34.5888274678497
          11 :   -31.0742748817710
          12 :    29.1980137735194
          13 :   -28.5328553587760
          14 :    27.8249218428202
          15 :   -26.2350313019345
          16 :    24.0193720698869
          17 :   -22.1326000483977
          18 :    21.2501085239415
          19 :   -21.1602389888552
          20 :    21.0312286332455
          21 :   -20.2119838879109
          22 :    18.7849817984164
          23 :   -17.4085083288138
          24 :    16.6698016601074
          25 :   -16.5741966406469
          26 :    16.6027078264535
          27 :   -16.2260235477472
          28 :    15.3730422649669
          29 :   -14.4426986073828
          30 :    13.8925586412652
          31 :   -17.1539376568590
          32 :   -12.3098268452100

     Forces acting on atoms (Ry/au):

     negative rho (up, down):  1.973E-04 0.000E+00
     atom    1 type  1   force =     0.00041197    0.00023149    0.00261574
     atom    2 type  1   force =    -0.00041212    0.00023912    0.00261282
     atom    3 type  1   force =     0.00000673   -0.00047305    0.00261471
     atom    4 type  1   force =    -0.00000679    0.00000264    0.00310305
     atom    5 type  1   force =     0.00000200   -0.00462945    0.00296015
     atom    6 type  1   force =    -0.00000312    0.00000178   -0.02023298
     atom    7 type  1   force =     0.00401105    0.00231259    0.00295909
     atom    8 type  1   force =    -0.00401037    0.00231441    0.00295791
     atom    9 type  1   force =     0.00000845   -0.00000147   -0.00004409
     atom   10 type  1   force =    -0.00001132   -0.00022830   -0.00007211
     atom   11 type  1   force =    -0.00019620    0.00010809   -0.00006920
     atom   12 type  1   force =     0.00020405    0.00012536   -0.00007687
     atom   13 type  2   force =    -0.00000329   -0.00000293    0.00129249
     atom   14 type  3   force =    -0.00000105   -0.00000028   -0.00062071

     Total force =     0.001494     Total SCF correction =     0.000241
     SCF correction compared to forces is large: reduce conv_thr to get better values

     entering subroutine stress ...

     negative rho (up, down):  1.973E-04 0.000E+00
          total   stress  (Ry/bohr**3)                   (kbar)     P=    3.52
   0.00004179   0.00000000  -0.00000000          6.15      0.00     -0.00
   0.00000000   0.00004178  -0.00000000          0.00      6.15     -0.00
  -0.00000000  -0.00000000  -0.00001173         -0.00     -0.00     -1.73

     bfgs converged in  17 scf cycles and  16 bfgs steps
     (criteria: energy <  1.0E+00, force <  1.9E-03)

     End of BFGS Geometry Optimization

     Final energy   =   -1150.4501643701 Ry
Begin final coordinates

ATOMIC_POSITIONS (crystal)
Sc1      0.166666667   0.166666667   0.395942884    0   0   0
Sc1      0.666666667   0.166666667   0.395942884    0   0   0
Sc1      0.166666667   0.666666667   0.395942884    0   0   0
Sc1      0.666666667   0.666666667   0.395942884    0   0   0
Sc1      0.833333333   0.333333333   0.500000000    0   0   0
Sc1      0.333333333   0.333333333   0.500000000    0   0   0
Sc1      0.833333333   0.833333333   0.500000000    0   0   0
Sc1      0.333333333   0.833333333   0.500000000    0   0   0
Sc1      0.000001087  -0.000001741   0.603666697
Sc1      0.496177198   0.007652696   0.606225413
Sc1      0.007652754   0.496174791   0.606225693
Sc1      0.496172927   0.496168487   0.606225000
C1       0.333334160   0.333333966   0.652500319
H1       0.333334843   0.333331919   0.696292712
End final coordinates

     Writing output data file calc.save

     General routines

     Parallel routines

   This run was terminated on:  22:53:15  22Apr2018

   JOB DONE.
Job  /afs/slac/g/suncat/bin/suncat-tsmpirun -x LD_LIBRARY_PATH -wdir /scratch/qe309141_rSXfN pw.x -npool 4 -in pw.inp

TID   HOST_NAME   COMMAND_LINE            STATUS            TERMINATION_TIME
00000 suncat0074 pw.x -npool 4 -i  Done                     04/22/2018 22:53:15
00001 suncat0074 pw.x -npool 4 -i  Done                     04/22/2018 22:53:15
00002 suncat0074 pw.x -npool 4 -i  Done                     04/22/2018 22:53:15
00003 suncat0074 pw.x -npool 4 -i  Done                     04/22/2018 22:53:15
00004 suncat0074 pw.x -npool 4 -i  Done                     04/22/2018 22:53:15
00005 suncat0074 pw.x -npool 4 -i  Done                     04/22/2018 22:53:15
00006 suncat0074 pw.x -npool 4 -i  Done                     04/22/2018 22:53:15
00007 suncat0074 pw.x -npool 4 -i  Done                     04/22/2018 22:53:15
00008 suncat0023 pw.x -npool 4 -i  Done                     04/22/2018 22:53:15
00009 suncat0023 pw.x -npool 4 -i  Done                     04/22/2018 22:53:15
00010 suncat0023 pw.x -npool 4 -i  Done                     04/22/2018 22:53:15
00011 suncat0023 pw.x -npool 4 -i  Done                     04/22/2018 22:53:15
00012 suncat0023 pw.x -npool 4 -i  Done                     04/22/2018 22:53:15
00013 suncat0023 pw.x -npool 4 -i  Done                     04/22/2018 22:53:15
00014 suncat0023 pw.x -npool 4 -i  Done                     04/22/2018 22:53:15
00015 suncat0023 pw.x -npool 4 -i  Done                     04/22/2018 22:53:15
00016 suncat0018 pw.x -npool 4 -i  Done                     04/22/2018 22:53:15
00017 suncat0018 pw.x -npool 4 -i  Done                     04/22/2018 22:53:15
00018 suncat0018 pw.x -npool 4 -i  Done                     04/22/2018 22:53:15
00019 suncat0018 pw.x -npool 4 -i  Done                     04/22/2018 22:53:15
00020 suncat0018 pw.x -npool 4 -i  Done                     04/22/2018 22:53:15
00021 suncat0018 pw.x -npool 4 -i  Done                     04/22/2018 22:53:15
00022 suncat0018 pw.x -npool 4 -i  Done                     04/22/2018 22:53:15
00023 suncat0018 pw.x -npool 4 -i  Done                     04/22/2018 22:53:15
00024 suncat0125 pw.x -npool 4 -i  Done                     04/22/2018 22:53:15
00025 suncat0125 pw.x -npool 4 -i  Done                     04/22/2018 22:53:15
00026 suncat0125 pw.x -npool 4 -i  Done                     04/22/2018 22:53:15
00027 suncat0125 pw.x -npool 4 -i  Done                     04/22/2018 22:53:15
00028 suncat0125 pw.x -npool 4 -i  Done                     04/22/2018 22:53:15
00029 suncat0125 pw.x -npool 4 -i  Done                     04/22/2018 22:53:15
00030 suncat0125 pw.x -npool 4 -i  Done                     04/22/2018 22:53:15
00031 suncat0125 pw.x -npool 4 -i  Done                     04/22/2018 22:53:15