     Program PWSCF v.5.1rc2 (svn rev. 11289) starts on 17Jan2019 at  1:33:38

     Current dimensions of program PWSCF are:
     Max number of different atomic species (ntypx) = 10
     Max number of k-points (npk) =  40000
     Max angular momentum in pseudopotentials (lmaxx) =  3

     IMPORTANT: XC functional enforced from input :
     Exchange-correlation      = BEEF-VDW ( 1  4 27 13 2)
     Any further DFT definition will be discarded
     Please, verify this is what you really want

     Subspace diagonalization in iterative solution of the eigenvalue problem:
     a serial algorithm will be used

     bravais-lattice index     =            0
     lattice parameter (alat)  =      12.7122  a.u.
     unit-cell volume          =    6741.9071 (a.u.)^3
     number of atoms/cell      =           13
     number of atomic types    =            2
     number of electrons       =       174.00
     number of Kohn-Sham states=           97
     kinetic-energy cutoff     =      36.7493  Ry
     charge density cutoff     =     367.4933  Ry
     convergence threshold     =      1.0E-04
     mixing beta               =       0.2000
     number of iterations used =            8  plain     mixing
     Exchange-correlation      = BEEF-VDW ( 1  4 27 13 2)
     nstep                     =           50

     celldm(1)=  12.712175  celldm(2)=   0.000000  celldm(3)=   0.000000
     celldm(4)=   0.000000  celldm(5)=   0.000000  celldm(6)=   0.000000

     crystal axes: (cart. coord. in units of alat)
               a(1) = (   1.000000   0.000000   0.000000 )
               a(2) = (   0.500000   0.866025   0.000000 )
               a(3) = (   0.000000   0.000000   3.789593 )

     reciprocal axes: (cart. coord. in units 2 pi/alat)
               b(1) = (  1.000000 -0.577350  0.000000 )
               b(2) = (  0.000000  1.154701  0.000000 )
               b(3) = (  0.000000  0.000000  0.263881 )

     PseudoPot. # 1 for Sn read from file:
     /nfs/slac/g/suncatfs/mamunm/src/decaf-espresso/gbrv15pbe/Sn.UPF
     MD5 check sum: 469debedee59599fedebd795477fea03
     Pseudo is Ultrasoft + core correction, Zval = 14.0
     Generated by new atomic code, or converted to UPF format
     Using radial grid of  891 points,  6 beta functions with:
                l(1) =   0
                l(2) =   0
                l(3) =   1
                l(4) =   1
                l(5) =   2
                l(6) =   2
     Q(r) pseudized with  8 coefficients,  rinner =    1.350   1.350   1.350
                                                       1.350   1.350

     PseudoPot. # 2 for S  read from file:
     /nfs/slac/g/suncatfs/mamunm/src/decaf-espresso/gbrv15pbe/S.UPF
     MD5 check sum: 88d86576ff6df21479756cfb9bdac1df
     Pseudo is Ultrasoft + core correction, Zval =  6.0
     Generated by new atomic code, or converted to UPF format
     Using radial grid of  907 points,  6 beta functions with:
                l(1) =   0
                l(2) =   0
                l(3) =   1
                l(4) =   1
                l(5) =   2
                l(6) =   2
     Q(r) pseudized with  8 coefficients,  rinner =    1.300   1.300   1.300
                                                       1.300   1.300

     vdW kernel table read from file vdW_kernel_table
     MD5 check sum: 095c7af220d748ca6e76c0b4c6cfb241

     atomic species   valence    mass     pseudopotential
        Sn            14.00   118.71000     Sn( 1.00)
        S              6.00    32.06000     S ( 1.00)

     No symmetry found

   Cartesian axes

     site n.     atom                  positions (alat units)
         1           Sn  tau(   1) = (   0.2500000   0.1443376   1.4865483  )
         2           Sn  tau(   2) = (   0.7500000   0.1443376   1.4865483  )
         3           Sn  tau(   3) = (   0.5000000   0.5773503   1.4865483  )
         4           Sn  tau(   4) = (   1.0000000   0.5773503   1.4865483  )
         5           Sn  tau(   5) = (   1.0000000   0.2886751   1.8947966  )
         6           Sn  tau(   6) = (   0.5000000   0.2886751   1.8947966  )
         7           Sn  tau(   7) = (   1.2500000   0.7216878   1.8947966  )
         8           Sn  tau(   8) = (   0.7500000   0.7216878   1.8947966  )
         9           Sn  tau(   9) = (   0.0068016   0.0039285   2.3672718  )
        10           Sn  tau(  10) = (   0.4931965   0.0039314   2.3672657  )
        11           Sn  tau(  11) = (   0.2500005   0.4251579   2.3672666  )
        12           Sn  tau(  12) = (   0.7500006   0.4330124   2.2923350  )
        13           S   tau(  13) = (   0.2500015   0.1443389   2.6470913  )

     number of k points=    20  Fermi-Dirac smearing, width (Ry)=  0.0110
                       cart. coord. in units 2pi/alat
        k(    1) = (   0.0000000   0.0000000   0.0000000), wk =   0.0555556
        k(    2) = (   0.0000000   0.1924501   0.0000000), wk =   0.1111111
        k(    3) = (   0.0000000   0.3849002   0.0000000), wk =   0.1111111
        k(    4) = (   0.0000000  -0.5773503   0.0000000), wk =   0.0555556
        k(    5) = (   0.1666667  -0.0962250   0.0000000), wk =   0.1111111
        k(    6) = (   0.1666667   0.0962250   0.0000000), wk =   0.1111111
        k(    7) = (   0.1666667   0.2886751   0.0000000), wk =   0.1111111
        k(    8) = (   0.1666667  -0.6735753   0.0000000), wk =   0.1111111
        k(    9) = (   0.1666667  -0.4811252   0.0000000), wk =   0.1111111
        k(   10) = (   0.1666667  -0.2886751   0.0000000), wk =   0.1111111
        k(   11) = (   0.3333333  -0.1924501   0.0000000), wk =   0.1111111
        k(   12) = (   0.3333333   0.0000000   0.0000000), wk =   0.1111111
        k(   13) = (   0.3333333   0.1924501   0.0000000), wk =   0.1111111
        k(   14) = (   0.3333333  -0.7698004   0.0000000), wk =   0.1111111
        k(   15) = (   0.3333333  -0.5773503   0.0000000), wk =   0.1111111
        k(   16) = (   0.3333333  -0.3849002   0.0000000), wk =   0.1111111
        k(   17) = (  -0.5000000   0.2886751   0.0000000), wk =   0.0555556
        k(   18) = (  -0.5000000   0.4811252   0.0000000), wk =   0.1111111
        k(   19) = (  -0.5000000   0.6735753   0.0000000), wk =   0.1111111
        k(   20) = (  -0.5000000  -0.2886751   0.0000000), wk =   0.0555556

     Largest allocated arrays     est. size (Mb)     dimensions
     Largest temporary arrays     est. size (Mb)     dimensions

     Initial potential from superposition of free atoms
     Check: negative starting charge=   -0.001310

     starting charge  161.99942, renormalised to  174.00000

     negative rho (up, down):  1.407E-03 0.000E+00

     *
     * You are using vdW-DF for exchange-correlation in this calculation.
     * Please cite the following three references that made this development
     * possible:
     *
     *   M. Dion, H. Rydberg, E. Schroder, D. C. Langreth, and
     *   B. I. Lundqvist, Phys. Rev. Lett. 92, 246401 (2004).
     *
     *   T. Thonhauser, V. R. Cooper, S. Li, A. Puzder, P. Hyldgaard, and
     *   D. C. Langreth, Phys. Rev. B 76, 125112 (2007).
     *
     *   G. Roman-Perez and J. M. Soler, Phys. Rev. Lett. 103, 096102 (2009).
     *
     *
     * If you are using vdW-DF2, please also cite:
     *
     *   K. Lee, E. D. Murray, L. Kong, B. I. Lundqvist, and
     *   D. C. Langreth, Phys. Rev. B 82, 081101(R) (2010).
     *
     *
     * If you are calculating the stress with vdW-DF, please also cite:
     *
     *   R. Sabatini, E. Kucukbenli, B. Kolb, T. Thonhauser, and
     *   S. de Gironcoli, J. Phys.: Condens. Matter 24, 424209 (2012).
     *

     Carrying out vdW-DF run using the following parameters:

     Nqs =      20    Nr_points =    1024   r_max =   100.000
     q_mesh =
               0.00001000     0.04494208     0.09755937     0.15916263
               0.23128650     0.31572767     0.41458969     0.53033537
               0.66584808     0.82450364     1.01025438     1.22772762
               1.48234092     1.78043706     2.12944203     2.53805004
               3.01644009     3.57652955     4.23227104     5.00000000

     Gradients computed in reciprocal space

     Adding external electric field

     Computed dipole along edir(3) :
        Dipole               -4.1645 Ry au,        -10.5852 Debye
        Dipole field         -0.0078 Ry au

        Potential amp.        0.6731 Ry
        Total length         43.3566 bohr

     Starting wfc are  112 randomized atomic wfcs

     Self-consistent Calculation

     iteration #  1     ecut=    36.75 Ry     beta=0.20
     Davidson diagonalization with overlap
     ethr =  1.00E-02,  avg # of iterations =  7.3

[...]

     total energy              =   -1903.61783062 Ry
     Harris-Foulkes estimate   =   -1958.80186938 Ry
     estimated scf accuracy    <     162.13166093 Ry

[...]

     End of self-consistent calculation

          k = 0.0000 0.0000 0.0000 ( 25377 PWs)   bands (ev):

   -21.5036 -21.4789 -21.4789 -21.4569 -21.4523 -21.4521 -21.4521 -21.4296
   -21.4187 -21.4187 -21.4169 -21.4097 -21.4097 -21.4095 -21.4041 -21.4041
   -21.3963 -21.3918 -21.3918 -21.3820 -21.3820 -21.3819 -21.3813 -21.3813
   -21.3785 -21.3761 -21.3761 -21.3722 -21.3698 -21.3698 -21.3572 -21.3523
   -21.3523 -21.3381 -21.3381 -21.3276 -21.3276 -21.3052 -21.2898 -21.2898
   -21.2810 -21.2803 -21.2802 -21.2786 -21.2695 -21.2695 -21.2633 -21.2633
   -21.2577 -21.2561 -21.2554 -21.2554 -21.2426 -21.2426 -21.2391 -21.2321
   -21.2321 -21.2252 -21.2215 -21.2215 -12.2347  -9.9182  -8.5484  -7.2389
    -5.9707  -5.9707  -5.9260  -5.6095  -5.6095  -5.5507  -4.9080  -4.9080
    -4.7185  -3.3375  -3.2994  -3.2994  -2.8404  -2.5809  -2.3927  -2.3927
    -2.1190  -2.1190  -2.0475  -1.1679  -1.1679  -0.5277   0.6826   1.4866
     1.4866   1.4993   2.1858   2.3949   2.3949   2.8475   3.2584   3.2586
     3.3950

[...]

          k =-0.5000 0.2887 0.0000 ( 25386 PWs)   bands (ev):

[...]

     the Fermi energy is     0.6235 ev

!    total energy              =   -1952.76777798 Ry
     Harris-Foulkes estimate   =   -1952.76776394 Ry
     estimated scf accuracy    <       0.00000945 Ry

     The total energy is the sum of the following terms:

     one-electron contribution =  -10098.82090410 Ry
     hartree contribution      =    5113.98836830 Ry
     xc contribution           =    -542.50499615 Ry
     ewald contribution        =    3574.61096989 Ry
     electric field correction =       0.00023751 Ry
     smearing contrib. (-TS)   =      -0.04145343 Ry

     convergence has been achieved in  14 iterations

     Forces acting on atoms (Ry/au):

     negative rho (up, down):  3.878E-04 0.000E+00
     atom    1 type  1   force =     0.00001324   -0.00000578   -0.00589644
     atom    2 type  1   force =    -0.00005671   -0.00423966    0.00053041
     atom    3 type  1   force =    -0.00367745    0.00214982    0.00062297
     atom    4 type  1   force =     0.00364845    0.00212867    0.00067467
     atom    5 type  1   force =     0.00564689   -0.00324359    0.00205305
     atom    6 type  1   force =    -0.00559460   -0.00327618    0.00203267
     atom    7 type  1   force =    -0.00000146   -0.00000538   -0.00721757
     atom    8 type  1   force =    -0.00000209    0.00648386    0.00203071
     atom    9 type  1   force =     0.00134188    0.00077580   -0.00020467
     atom   10 type  1   force =    -0.00135252    0.00079066   -0.00016104
     atom   11 type  1   force =     0.00000001   -0.00155540   -0.00018470
     atom   12 type  1   force =     0.00003041   -0.00001284    0.00184998
     atom   13 type  2   force =     0.00000394    0.00001000    0.00386997

     Total force =     0.005077     Total SCF correction =     0.002113
     SCF correction compared to forces is large: reduce conv_thr to get better values

     BFGS Geometry Optimization

     number of scf cycles    =   1
     number of bfgs steps    =   0

     energy   new            =   -1952.7677779827 Ry

     new trust radius        =       0.0038699825 bohr
     new conv_thr            =       0.0001000000 Ry

ATOMIC_POSITIONS (angstrom)
Sn       1.681748263   0.970957812  10.000000000    0   0   0
Sn       5.045244789   0.970957812  10.000000000    0   0   0
Sn       3.363496526   3.883831250  10.000000000    0   0   0
Sn       6.726993052   3.883831250  10.000000000    0   0   0
Sn       6.726993052   1.941915625  12.746283414    0   0   0
Sn       3.363496526   1.941915625  12.746283414    0   0   0
Sn       8.408741315   4.854789062  12.746283414    0   0   0
Sn       5.045244789   4.854789062  12.746283414    0   0   0
Sn       0.046464279   0.026837317  15.924512881
Sn       3.317013423   0.026865003  15.924494800
Sn       1.681751331   2.859210856  15.924488242
Sn       5.045264790   2.912864403  15.421500836
S        1.681760650   0.970972324  17.809012791

     Writing output data file calc.save
     Check: negative starting charge=   -0.001310
     NEW-OLD atomic charge density approx. for the potential
     Check: negative starting charge=   -0.001309

[...]

     Self-consistent Calculation

[...]

     total energy              =   -1952.76779217 Ry
     Harris-Foulkes estimate   =   -1952.76781700 Ry
     estimated scf accuracy    <       0.00020503 Ry

     iteration #  4     ecut=    36.75 Ry     beta=0.20
     Davidson diagonalization with overlap
     ethr =  1.18E-07,  avg # of iterations =  1.9

     negative rho (up, down):  3.887E-04 0.000E+00

     Adding external electric field

     Computed dipole along edir(3) :
        Dipole               -0.3455 Ry au,         -0.8783 Debye
        Dipole field         -0.0006 Ry au

        Potential amp.        0.0558 Ry
        Total length         43.3566 bohr

     End of self-consistent calculation

[...]

          k = 0.3333-0.3849 0.0000 ( 25368 PWs)   bands (ev):

[...]

          k =-0.5000-0.2887 0.0000 ( 25386 PWs)   bands (ev):

   -21.4791 -21.4532 -21.4352 -21.4311 -21.4215 -21.4204 -21.4154 -21.4108
   -21.4078 -21.4045 -21.3992 -21.3990 -21.3965 -21.3958 -21.3911 -21.3907
   -21.3902 -21.3857 -21.3835 -21.3817 -21.3803 -21.3749 -21.3725 -21.3723
   -21.3685 -21.3672 -21.3643 -21.3633 -21.3575 -21.3546 -21.3525 -21.3483
   -21.3449 -21.3407 -21.3303 -21.3276 -21.3247 -21.3215 -21.3159 -21.3100
   -21.3071 -21.3040 -21.3021 -21.2944 -21.2917 -21.2880 -21.2852 -21.2846
   -21.2830 -21.2791 -21.2770 -21.2726 -21.2712 -21.2644 -21.2640 -21.2604
   -21.2531 -21.2420 -21.2333 -21.2226 -12.1989  -8.8594  -8.7180  -7.6873
    -7.4365  -6.5952  -6.5867  -6.3327  -6.2404  -5.8269  -5.5637  -4.6640
    -4.4884  -2.7837  -2.0728  -2.0120  -1.5929  -1.3217  -1.2940  -1.2456
    -1.1452  -0.8443  -0.3478   0.0263   0.1065   0.1101   0.7892   0.8742
     1.0314   1.2748   1.4086   1.4930   1.5507   1.8031   1.9020   1.9193
     2.3002

     the Fermi energy is     0.6276 ev

!    total energy              =   -1952.76780010 Ry
     Harris-Foulkes estimate   =   -1952.76780828 Ry
     estimated scf accuracy    <       0.00000137 Ry

     The total energy is the sum of the following terms:

     one-electron contribution =  -10098.16868881 Ry
     hartree contribution      =    5113.63403561 Ry
     xc contribution           =    -542.51536280 Ry
     ewald contribution        =    3574.32341428 Ry
     electric field correction =       0.00022254 Ry
     smearing contrib. (-TS)   =      -0.04142091 Ry

     convergence has been achieved in   4 iterations

     Forces acting on atoms (Ry/au):

     negative rho (up, down):  3.887E-04 0.000E+00
     atom    1 type  1   force =    -0.00000012   -0.00000844   -0.00505258
     atom    2 type  1   force =     0.00002225   -0.00465338    0.00175475
     atom    3 type  1   force =    -0.00402026    0.00231459    0.00173314
     atom    4 type  1   force =     0.00403324    0.00232356    0.00173753
     atom    5 type  1   force =     0.00532239   -0.00308283    0.00277822
     atom    6 type  1   force =    -0.00534226   -0.00306334    0.00278800
     atom    7 type  1   force =    -0.00000610    0.00000563   -0.00936983
     atom    8 type  1   force =     0.00000094    0.00617301    0.00278915
     atom    9 type  1   force =    -0.00121259   -0.00071091   -0.00013730
     atom   10 type  1   force =     0.00122129   -0.00071378   -0.00016669
     atom   11 type  1   force =    -0.00000008    0.00139824   -0.00014491
     atom   12 type  1   force =    -0.00001704    0.00001932    0.00083979
     atom   13 type  2   force =    -0.00000166   -0.00000167    0.00045074

     Total force =     0.002628     Total SCF correction =     0.004511
     SCF correction compared to forces is large: reduce conv_thr to get better values

     bfgs converged in   2 scf cycles and   1 bfgs steps
     (criteria: energy <  1.0E+12, force <  1.9E-03)

     End of BFGS Geometry Optimization

     Final energy   =   -1952.7678001031 Ry
Begin final coordinates

ATOMIC_POSITIONS (angstrom)
Sn       1.681748263   0.970957812  10.000000000    0   0   0
Sn       5.045244789   0.970957812  10.000000000    0   0   0
Sn       3.363496526   3.883831250  10.000000000    0   0   0
Sn       6.726993052   3.883831250  10.000000000    0   0   0
Sn       6.726993052   1.941915625  12.746283414    0   0   0
Sn       3.363496526   1.941915625  12.746283414    0   0   0
Sn       8.408741315   4.854789062  12.746283414    0   0   0
Sn       5.045244789   4.854789062  12.746283414    0   0   0
Sn       0.046464279   0.026837317  15.924512881
Sn       3.317013423   0.026865003  15.924494800
Sn       1.681751331   2.859210856  15.924488242
Sn       5.045264790   2.912864403  15.421500836
S        1.681760650   0.970972324  17.809012791
End final coordinates

     Writing output data file calc.save

     General routines

     Parallel routines

   This run was terminated on:   1:44:52  17Jan2019

   JOB DONE.
Job  /afs/slac/g/suncat/bin/suncat-tsmpirun -x LD_LIBRARY_PATH -wdir /tmp/qe_3793558i43_rfp_scratch pw.x -npool 3 -in pw.pwi

TID   HOST_NAME   COMMAND_LINE            STATUS            TERMINATION_TIME
00000 suncat1031 pw.x -npool 3 -i  Done                     01/17/2019 01:44:52
00001 suncat1031 pw.x -npool 3 -i  Done                     01/17/2019 01:44:52
00002 suncat1031 pw.x -npool 3 -i  Done                     01/17/2019 01:44:52
00003 suncat1031 pw.x -npool 3 -i  Done                     01/17/2019 01:44:52
00004 suncat1031 pw.x -npool 3 -i  Done                     01/17/2019 01:44:52
00005 suncat1031 pw.x -npool 3 -i  Done                     01/17/2019 01:44:52
00006 suncat1031 pw.x -npool 3 -i  Done                     01/17/2019 01:44:52
00007 suncat1031 pw.x -npool 3 -i  Done                     01/17/2019 01:44:52
00008 suncat1031 pw.x -npool 3 -i  Done                     01/17/2019 01:44:52
00009 suncat1031 pw.x -npool 3 -i  Done                     01/17/2019 01:44:52
00010 suncat1031 pw.x -npool 3 -i  Done                     01/17/2019 01:44:52
00011 suncat1031 pw.x -npool 3 -i  Done                     01/17/2019 01:44:52
00012 suncat1024 pw.x -npool 3 -i  Done                     01/17/2019 01:44:52
00013 suncat1024 pw.x -npool 3 -i  Done                     01/17/2019 01:44:52
00014 suncat1024 pw.x -npool 3 -i  Done                     01/17/2019 01:44:52
00015 suncat1024 pw.x -npool 3 -i  Done                     01/17/2019 01:44:52
00016 suncat1024 pw.x -npool 3 -i  Done                     01/17/2019 01:44:52
00017 suncat1024 pw.x -npool 3 -i  Done                     01/17/2019 01:44:52
00018 suncat1024 pw.x -npool 3 -i  Done                     01/17/2019 01:44:52
00019 suncat1024 pw.x -npool 3 -i  Done                     01/17/2019 01:44:52
00020 suncat1024 pw.x -npool 3 -i  Done                     01/17/2019 01:44:52
00021 suncat1024 pw.x -npool 3 -i  Done                     01/17/2019 01:44:52
00022 suncat1024 pw.x -npool 3 -i  Done                     01/17/2019 01:44:52
00023 suncat1024 pw.x -npool 3 -i  Done                     01/17/2019 01:44:52
00024 suncat1012 pw.x -npool 3 -i  Done                     01/17/2019 01:44:52
00025 suncat1012 pw.x -npool 3 -i  Done                     01/17/2019 01:44:52
00026 suncat1012 pw.x -npool 3 -i  Done                     01/17/2019 01:44:52
00027 suncat1012 pw.x -npool 3 -i  Done                     01/17/2019 01:44:52
00028 suncat1012 pw.x -npool 3 -i  Done                     01/17/2019 01:44:52
00029 suncat1012 pw.x -npool 3 -i  Done                     01/17/2019 01:44:52
00030 suncat1012 pw.x -npool 3 -i  Done                     01/17/2019 01:44:52
00031 suncat1012 pw.x -npool 3 -i  Done                     01/17/2019 01:44:52
00032 suncat1012 pw.x -npool 3 -i  Done                     01/17/2019 01:44:52
00033 suncat1012 pw.x -npool 3 -i  Done                     01/17/2019 01:44:52
00034 suncat1012 pw.x -npool 3 -i  Done                     01/17/2019 01:44:52
00035 suncat1012 pw.x -npool 3 -i  Done                     01/17/2019 01:44:52