     Program PWSCF v.5.1rc2 (svn rev. 11289) starts on 23Apr2018 at  7:55:31

     Current dimensions of program PWSCF are:
     Max number of different atomic species (ntypx) = 10
     Max number of k-points (npk) =  40000
     Max angular momentum in pseudopotentials (lmaxx) =  3
     Presently stress not available with electric field

     IMPORTANT: XC functional enforced from input :
     Exchange-correlation      = BEEF-VDW ( 1  4 27 13 2)
     Any further DFT definition will be discarded
     Please, verify this is what you really want

     Subspace diagonalization in iterative solution of the eigenvalue problem:
     a serial algorithm will be used

     bravais-lattice index     =            0
     lattice parameter (alat)  =       1.8897  a.u.
     unit-cell volume          =    5185.0501 (a.u.)^3
     number of atoms/cell      =           14
     number of atomic types    =            3
     number of electrons       =       162.00
     number of Kohn-Sham states=           91
     kinetic-energy cutoff     =      36.7493  Ry
     charge density cutoff     =     367.4932  Ry
     convergence threshold     =      1.0E-05
     mixing beta               =       0.3000
     number of iterations used =           10  plain     mixing
     Exchange-correlation      = BEEF-VDW ( 1  4 27 13 2)
     nstep                     =           50

     celldm(1)=   1.889726  celldm(2)=   0.000000  celldm(3)=   0.000000
     celldm(4)=   0.000000  celldm(5)=   0.000000  celldm(6)=   0.000000

     crystal axes: (cart. coord. in units of alat)
               a(1) = (   5.972022   0.000000   0.000000 )
               a(2) = (   2.986011   5.171923   0.000000 )
               a(3) = (   0.000000   0.000000  24.876136 )

     reciprocal axes: (cart. coord. in units 2 pi/alat)
               b(1) = (  0.167447 -0.096676  0.000000 )
               b(2) = (  0.000000  0.193352  0.000000 )
               b(3) = (  0.000000  0.000000  0.040199 )

     PseudoPot. # 1 for Ta read from file:
     /u/if/mamunm/psp/gbrv1.5pbe/Ta.UPF
     MD5 check sum: f8bbe9446314a3b8ea5d9f3e3836c939
     Pseudo is Ultrasoft + core correction, Zval = 13.0
     Generated by new atomic code, or converted to UPF format
     Using radial grid of  921 points,  7 beta functions with:
                l(1) =   0
                l(2) =   0
                l(3) =   1
                l(4) =   1
                l(5) =   2
                l(6) =   2
                l(7) =   3
     Q(r) pseudized with  6 coefficients,  rinner =    1.300   1.300   1.300
                                                       1.300   1.300   1.300
                                                       1.300

     PseudoPot. # 2 for N  read from file:
     /u/if/mamunm/psp/gbrv1.5pbe/N.UPF
     MD5 check sum: 95339753478d7afb44899504a8723017
     Pseudo is Ultrasoft + core correction, Zval =  5.0
     Generated by new atomic code, or converted to UPF format
     Using radial grid of  729 points,  4 beta functions with:
                l(1) =   0
                l(2) =   0
                l(3) =   1
                l(4) =   1
     Q(r) pseudized with  8 coefficients,  rinner =    0.900   0.900   0.900

     PseudoPot. # 3 for H  read from file:
     /u/if/mamunm/psp/gbrv1.5pbe/H.UPF
     MD5 check sum: 761ae9a214b05c3daf00ab9f6b793d6f
     Pseudo is Ultrasoft, Zval =  1.0
     Generated by new atomic code, or converted to UPF format
     Using radial grid of  615 points,  2 beta functions with:
                l(1) =   0
                l(2) =   0
     Q(r) pseudized with  8 coefficients,  rinner =    0.700

     vdW kernel table read from file vdW_kernel_table
     MD5 check sum: 095c7af220d748ca6e76c0b4c6cfb241

     atomic species   valence    mass     pseudopotential
        Ta1           13.00   180.94788     Ta( 1.00)
        N1             5.00    14.00700     N ( 1.00)
        H1             1.00     1.00800     H ( 1.00)

     No symmetry found

   Cartesian axes

     site n.     atom                  positions (alat units)
         1           Ta1 tau(   1) = (   1.4930055   0.8619871  10.0000000  )
         2           Ta1 tau(   2) = (   4.4790165   0.8619871  10.0000000  )
         3           Ta1 tau(   3) = (   2.9860110   3.4479485  10.0000000  )
         4           Ta1 tau(   4) = (   5.9720221   3.4479485  10.0000000  )
         5           Ta1 tau(   5) = (   5.9720221   1.7239743  12.4380678  )
         6           Ta1 tau(   6) = (   2.9860110   1.7239743  12.4380678  )
         7           Ta1 tau(   7) = (   7.4650276   4.3099357  12.4380678  )
         8           Ta1 tau(   8) = (   4.4790165   4.3099357  12.4380678  )
         9           Ta1 tau(   9) = (   0.0000000   0.0000000  14.8761356  )
        10           Ta1 tau(  10) = (   2.9860110   0.0000000  14.8761356  )
        11           Ta1 tau(  11) = (   1.4930055   2.5859614  14.8761356  )
        12           Ta1 tau(  12) = (   4.4790165   2.5859614  14.8761356  )
        13           N1  tau(  13) = (   0.0000000   0.0000000  16.9246356  )
        14           H1  tau(  14) = (   0.0000000   0.0000000  17.9746356  )

     number of k points=    20  Fermi-Dirac smearing, width (Ry)=  0.0110
                       cart. coord. in units 2pi/alat
        k(    1) = (   0.0000000   0.0000000   0.0000000), wk =   0.0555556
        k(    2) = (   0.0000000   0.0322253   0.0000000), wk =   0.1111111
        k(    3) = (   0.0000000   0.0644506   0.0000000), wk =   0.1111111
        k(    4) = (   0.0000000  -0.0966758   0.0000000), wk =   0.0555556
        k(    5) = (   0.0279079  -0.0161126   0.0000000), wk =   0.1111111
        k(    6) = (   0.0279079   0.0161126   0.0000000), wk =   0.1111111
        k(    7) = (   0.0279079   0.0483379   0.0000000), wk =   0.1111111
        k(    8) = (   0.0279079  -0.1127885   0.0000000), wk =   0.1111111
        k(    9) = (   0.0279079  -0.0805632   0.0000000), wk =   0.1111111
        k(   10) = (   0.0279079  -0.0483379   0.0000000), wk =   0.1111111
        k(   11) = (   0.0558158  -0.0322253   0.0000000), wk =   0.1111111
        k(   12) = (   0.0558158   0.0000000   0.0000000), wk =   0.1111111
        k(   13) = (   0.0558158   0.0322253   0.0000000), wk =   0.1111111
        k(   14) = (   0.0558158  -0.1289011   0.0000000), wk =   0.1111111
        k(   15) = (   0.0558158  -0.0966758   0.0000000), wk =   0.1111111
        k(   16) = (   0.0558158  -0.0644506   0.0000000), wk =   0.1111111
        k(   17) = (  -0.0837237   0.0483379   0.0000000), wk =   0.0555556
        k(   18) = (  -0.0837237   0.0805632   0.0000000), wk =   0.1111111
        k(   19) = (  -0.0837237   0.1127885   0.0000000), wk =   0.1111111
        k(   20) = (  -0.0837237  -0.0483379   0.0000000), wk =   0.0555556

     Largest allocated arrays     est. size (Mb)     dimensions
     Largest temporary arrays     est. size (Mb)     dimensions

     Initial potential from superposition of free atoms
     Check: negative starting charge=   -1.121573

     starting charge  161.98664, renormalised to  162.00000

     negative rho (up, down):  1.122E+00 0.000E+00

     *
     * You are using vdW-DF for exchange-correlation in this calculation.
     * Please cite the following three references that made this development
     * possible:
     *
     *   M. Dion, H. Rydberg, E. Schroder, D. C. Langreth, and
     *   B. I. Lundqvist, Phys. Rev. Lett. 92, 246401 (2004).
     *
     *   T. Thonhauser, V. R. Cooper, S. Li, A. Puzder, P. Hyldgaard, and
     *   D. C. Langreth, Phys. Rev. B 76, 125112 (2007).
     *
     *   G. Roman-Perez and J. M. Soler, Phys. Rev. Lett. 103, 096102 (2009).
     *
     *
     * If you are using vdW-DF2, please also cite:
     *
     *   K. Lee, E. D. Murray, L. Kong, B. I. Lundqvist, and
     *   D. C. Langreth, Phys. Rev. B 82, 081101(R) (2010).
     *
     *
     * If you are calculating the stress with vdW-DF, please also cite:
     *
     *   R. Sabatini, E. Kucukbenli, B. Kolb, T. Thonhauser, and
     *   S. de Gironcoli, J. Phys.: Condens. Matter 24, 424209 (2012).
     *

     Carrying out vdW-DF run using the following parameters:

     Nqs =      20    Nr_points =    1024   r_max =   100.000
     q_mesh =
               0.00001000     0.04494208     0.09755937     0.15916263
               0.23128650     0.31572767     0.41458969     0.53033537
               0.66584808     0.82450364     1.01025438     1.22772762
               1.48234092     1.78043706     2.12944203     2.53805004
               3.01644009     3.57652955     4.23227104     5.00000000

     Gradients computed in reciprocal space

     Adding external electric field

     Computed dipole along edir(3) :
        Dipole               -0.0042 Ry au,         -0.0107 Debye
        Dipole field         -0.0000 Ry au

        Potential amp.        0.0009 Ry
        Total length         45.8339 bohr

     Starting wfc are  161 randomized atomic wfcs

     Self-consistent Calculation

     iteration #  1     ecut=    36.75 Ry     beta=0.30
     Davidson diagonalization with overlap
     ethr =  1.00E-02,  avg # of iterations =  2.0

[...]

     total energy              =   -1737.82124425 Ry
     Harris-Foulkes estimate   =   -1740.33483006 Ry
     estimated scf accuracy    <       5.48644433 Ry

[...]

     End of self-consistent calculation

          k = 0.0000 0.0000 0.0000 ( 19447 PWs)   bands (ev):

   -66.1304 -66.0838 -66.0836 -66.0084 -65.9905 -65.9518 -65.9517 -65.9466
   -65.9072 -65.8451 -65.8160 -65.8159 -32.8049 -32.8048 -32.7607 -32.7508
   -32.7186 -32.7185 -32.6762 -32.6569 -32.6568 -32.6546 -32.5029 -32.4380
   -32.4378 -32.3683 -32.2897 -32.2896 -32.2729 -32.2683 -32.1777 -32.1777
   -32.1048 -32.1009 -32.1009 -32.0830 -32.0475 -32.0475 -32.0162 -32.0162
   -32.0095 -31.9807 -31.9807 -31.9755 -31.9177 -31.9177 -31.8274 -31.8274
   -12.2482  -5.2100  -3.9519  -3.3044  -2.4984  -1.8007  -1.8007  -1.7266
    -1.6243  -1.6243  -1.5136  -0.9448  -0.9447  -0.8877  -0.7215  -0.7215
    -0.6069  -0.0941  -0.0940   0.5287   1.0418   1.0418   1.6745   1.8453
     2.0192   2.0192   2.1371   2.2280   2.3943   2.3943   2.6019   2.6643
     2.6643   2.9437   2.9437   3.0267   3.0410   3.0411   3.1099   3.1099
     3.1246   3.2773   3.5918

[...]

          k =-0.0837 0.0483 0.0000 ( 19532 PWs)   bands (ev):

[...]

     the Fermi energy is     2.3061 ev

!    total energy              =   -1739.81130124 Ry
     Harris-Foulkes estimate   =   -1739.81130850 Ry
     estimated scf accuracy    <       0.00000446 Ry

     The total energy is the sum of the following terms:

     one-electron contribution =  -11623.14114423 Ry
     hartree contribution      =    5797.68884745 Ry
     xc contribution           =    -528.89686370 Ry
     ewald contribution        =    4614.64105587 Ry
     electric field correction =       0.00009855 Ry
     smearing contrib. (-TS)   =      -0.10329519 Ry

     convergence has been achieved in  15 iterations

 BEEF-vdW xc energy contributions
           1 :   -465.474126822639
           2 :    429.449516452903
           3 :   -366.655388572149
           4 :    291.693703861748
           5 :   -219.109413358542
           6 :    158.953428752127
           7 :   -114.832630990711
           8 :    84.7624302233673
           9 :   -63.8999297894517
          10 :    47.5615493687163
          11 :   -33.1326763723927
          12 :    20.3060582937758
          13 :   -10.0392273049547
          14 :    3.15462263098561
          15 :   0.550167694779361
          16 :   -2.29313966503918
          17 :    3.59631000019908
          18 :   -5.43933395529996
          19 :    7.81867716614386
          20 :   -9.93685342288222
          21 :    10.8507704015699
          22 :   -10.1528711243182
          23 :    8.26961773445640
          24 :   -6.22292317502485
          25 :    5.03472294333130
          26 :   -5.15813095565431
          27 :    6.27263602077886
          28 :   -7.53848403634117
          29 :    8.12265506333074
          30 :   -7.66433961980982
          31 :   -41.7173943242177
          32 :   -30.9210563337701

     Forces acting on atoms (Ry/au):

     negative rho (up, down):  1.177E+00 0.000E+00
     atom    1 type  1   force =    -0.00178303   -0.00102902    0.00274083
     atom    2 type  1   force =     0.00178506   -0.00103483    0.00274323
     atom    3 type  1   force =    -0.00000446    0.00206258    0.00274723
     atom    4 type  1   force =     0.00000463    0.00000145    0.00265890
     atom    5 type  1   force =     0.00000985    0.00474870   -0.00605142
     atom    6 type  1   force =    -0.00001342   -0.00000308    0.01106809
     atom    7 type  1   force =    -0.00411543   -0.00237860   -0.00604433
     atom    8 type  1   force =     0.00411458   -0.00236561   -0.00605486
     atom    9 type  1   force =     0.00000483   -0.00000002    0.19364348
     atom   10 type  1   force =    -0.00000259    0.00424821   -0.01625164
     atom   11 type  1   force =     0.00367850   -0.00212615   -0.01625048
     atom   12 type  1   force =    -0.00367939   -0.00212423   -0.01625322
     atom   13 type  2   force =     0.00000046    0.00000017   -0.10118009
     atom   14 type  3   force =     0.00000040    0.00000043   -0.04751572

     Total force =     0.225476     Total SCF correction =     0.004413

     entering subroutine stress ...

     negative rho (up, down):  1.177E+00 0.000E+00
          total   stress  (Ry/bohr**3)                   (kbar)     P=  -35.72
  -0.00026947  -0.00000000  -0.00000000        -39.64     -0.00     -0.00
  -0.00000000  -0.00026947  -0.00000000         -0.00    -39.64     -0.00
  -0.00000000  -0.00000000  -0.00018945         -0.00     -0.00    -27.87

     BFGS Geometry Optimization

     number of scf cycles    =   1
     number of bfgs steps    =   0

     energy   new            =   -1739.8113012427 Ry

     new trust radius        =       0.1936434793 bohr
     new conv_thr            =       0.0000099958 Ry

ATOMIC_POSITIONS (crystal)
Ta1      0.166666667   0.166666667   0.401991699    0   0   0
Ta1      0.666666667   0.166666667   0.401991699    0   0   0
Ta1      0.166666667   0.666666667   0.401991699    0   0   0
Ta1      0.666666667   0.666666667   0.401991699    0   0   0
Ta1      0.833333333   0.333333333   0.500000000    0   0   0
Ta1      0.333333333   0.333333333   0.500000000    0   0   0
Ta1      0.833333333   0.833333333   0.500000000    0   0   0
Ta1      0.333333333   0.833333333   0.500000000    0   0   0
Ta1      0.000000429  -0.000000002   0.602127579
Ta1      0.499782438   0.000434665   0.597662589
Ta1      0.000434721   0.499782459   0.597662613
Ta1      0.499782645   0.499782654   0.597662555
N1       0.000000032   0.000000017   0.678203949
H1       0.000000013   0.000000044   0.721554652

     Writing output data file calc.save
     Check: negative starting charge=   -1.121573
     NEW-OLD atomic charge density approx. for the potential
     Check: negative starting charge=   -1.121419

[...]

     energy   old            =   -1739.8113012426 Ry
     energy   new            =   -1739.8479826744 Ry

     CASE: energy  _new < energy  _old

[...]

     Threshold (ethr) on eigenvalues was too large:
     Diagonalizing with lowered threshold

     Davidson diagonalization with overlap
     ethr =  8.27E-08,  avg # of iterations =  2.3

[...]

     Total force =     0.005246     Total SCF correction =     0.000562
     SCF correction compared to forces is large: reduce conv_thr to get better values

[...]

     number of scf cycles    =  15
     number of bfgs steps    =  14

     energy   old            =   -1739.8707159286 Ry
     energy   new            =   -1739.8707661809 Ry

     CASE: energy  _new < energy  _old

     new trust radius        =       0.0079854525 bohr
     new conv_thr            =       0.0000001000 Ry

ATOMIC_POSITIONS (crystal)
Ta1      0.166666667   0.166666667   0.401991699    0   0   0
Ta1      0.666666667   0.166666667   0.401991699    0   0   0
Ta1      0.166666667   0.666666667   0.401991699    0   0   0
Ta1      0.666666667   0.666666667   0.401991699    0   0   0
Ta1      0.833333333   0.333333333   0.500000000    0   0   0
Ta1      0.333333333   0.333333333   0.500000000    0   0   0
Ta1      0.833333333   0.833333333   0.500000000    0   0   0
Ta1      0.333333333   0.833333333   0.500000000    0   0   0
Ta1      0.000000565  -0.000000161   0.611704058
Ta1      0.498732228   0.002535513   0.592922733
Ta1      0.002536529   0.498731526   0.592922712
Ta1      0.498733456   0.498732899   0.592921948
N1      -0.000000034  -0.000000067   0.684949077
H1      -0.000000032   0.000000348   0.725755685

     Writing output data file calc.save
     Check: negative starting charge=   -1.122456
     NEW-OLD atomic charge density approx. for the potential
     Check: negative starting charge=   -1.123125

[...]

     Self-consistent Calculation

[...]

     total energy              =   -1739.87079623 Ry
     Harris-Foulkes estimate   =   -1739.87079624 Ry
     estimated scf accuracy    <       0.00000048 Ry

     iteration #  8     ecut=    36.75 Ry     beta=0.30
     Davidson diagonalization with overlap
     ethr =  2.97E-10,  avg # of iterations =  2.5

[...]

     negative rho (up, down):  1.178E+00 0.000E+00

     Adding external electric field

     Computed dipole along edir(3) :
        Dipole                0.1291 Ry au,          0.3282 Debye
        Dipole field          0.0003 Ry au

        Potential amp.       -0.0287 Ry
        Total length         45.8339 bohr

     End of self-consistent calculation

[...]

          k = 0.0558-0.0645 0.0000 ( 19521 PWs)   bands (ev):

[...]

          k =-0.0837-0.0483 0.0000 ( 19532 PWs)   bands (ev):

   -66.1179 -66.1028 -66.0868 -66.0805 -66.0802 -66.0514 -66.0514 -65.9703
   -65.9620 -65.9459 -65.9233 -65.7735 -32.7863 -32.7601 -32.7413 -32.7274
   -32.6676 -32.6634 -32.6103 -32.6050 -32.5795 -32.5625 -32.5520 -32.4786
   -32.4213 -32.4127 -32.3978 -32.3907 -32.3849 -32.3521 -32.3277 -32.2976
   -32.2818 -32.2474 -32.2379 -32.2337 -32.2025 -32.1704 -32.1510 -32.1242
   -32.1068 -32.1057 -32.0995 -32.0791 -32.0529 -32.0345 -31.9885 -31.9717
   -12.3315  -4.1973  -3.4921  -3.2419  -2.0587  -1.8434  -1.1764  -1.1496
    -0.9875  -0.8811  -0.8245  -0.7431  -0.4190  -0.3626   0.0645   0.1393
     0.2289   0.3544   0.4664   0.4765   0.6970   0.8432   0.9133   1.0029
     1.0728   1.1021   1.2931   1.4183   1.5908   1.6054   1.6467   1.7471
     1.7750   1.9724   1.9874   2.0871   2.3735   2.4832   2.5982   2.7118
     2.8707   3.2536   3.7225

     the Fermi energy is     2.1937 ev

!    total energy              =   -1739.87079626 Ry
     Harris-Foulkes estimate   =   -1739.87079656 Ry
     estimated scf accuracy    <       0.00000008 Ry

     The total energy is the sum of the following terms:

     one-electron contribution =  -11609.75272669 Ry
     hartree contribution      =    5790.70334642 Ry
     xc contribution           =    -529.15083574 Ry
     ewald contribution        =    4608.43091350 Ry
     electric field correction =       0.00004042 Ry
     smearing contrib. (-TS)   =      -0.10153417 Ry

     convergence has been achieved in   8 iterations

 BEEF-vdW xc energy contributions
           1 :   -465.723441408968
           2 :    429.725449233109
           3 :   -366.962914573993
           4 :    291.991550995385
           5 :   -219.322106046245
           6 :    159.018628984271
           7 :   -114.741885687677
           8 :    84.5659441656806
           9 :   -63.6756078176783
          10 :    47.3719319191341
          11 :   -32.9965375814092
          12 :    20.1982470329597
          13 :   -9.91282992721011
          14 :    2.96615891771467
          15 :   0.821721975124831
          16 :   -2.63560444757019
          17 :    3.96916476735333
          18 :   -5.79311296887772
          19 :    8.11784089561871
          20 :   -10.1763177617968
          21 :    11.0577428523653
          22 :   -10.3701041516906
          23 :    8.52763377592822
          24 :   -6.51891261653361
          25 :    5.33319702559191
          26 :   -5.41373568292187
          27 :    6.46104667194555
          28 :   -7.67406796112363
          29 :    8.24764180976678
          30 :   -7.81842236828237
          31 :   -41.7315290552185
          32 :   -30.9378312777366

     Forces acting on atoms (Ry/au):

     negative rho (up, down):  1.178E+00 0.000E+00
     atom    1 type  1   force =    -0.00297887   -0.00171978    0.00360942
     atom    2 type  1   force =     0.00297857   -0.00172003    0.00360914
     atom    3 type  1   force =    -0.00000035    0.00343954    0.00360913
     atom    4 type  1   force =    -0.00000038   -0.00000024    0.00507236
     atom    5 type  1   force =     0.00000194   -0.01295995   -0.00028415
     atom    6 type  1   force =    -0.00000173   -0.00000109   -0.01520836
     atom    7 type  1   force =     0.01122241    0.00647936   -0.00027932
     atom    8 type  1   force =    -0.01122270    0.00648174   -0.00028423
     atom    9 type  1   force =    -0.00000043   -0.00000021   -0.00086482
     atom   10 type  1   force =     0.00000170    0.00148618   -0.00000492
     atom   11 type  1   force =     0.00128780   -0.00074181   -0.00000494
     atom   12 type  1   force =    -0.00128769   -0.00074364   -0.00000209
     atom   13 type  2   force =    -0.00000010    0.00000003    0.00143474
     atom   14 type  3   force =    -0.00000015   -0.00000009   -0.00040197

     Total force =     0.003098     Total SCF correction =     0.000246

     entering subroutine stress ...

     negative rho (up, down):  1.178E+00 0.000E+00
          total   stress  (Ry/bohr**3)                   (kbar)     P=  -25.49
  -0.00022864  -0.00000000   0.00000000        -33.63     -0.00      0.00
  -0.00000000  -0.00022864   0.00000000         -0.00    -33.63      0.00
   0.00000000   0.00000000  -0.00006245          0.00      0.00     -9.19

     bfgs converged in  16 scf cycles and  15 bfgs steps
     (criteria: energy <  1.0E+00, force <  1.9E-03)

     End of BFGS Geometry Optimization

     Final energy   =   -1739.8707962639 Ry
Begin final coordinates

ATOMIC_POSITIONS (crystal)
Ta1      0.166666667   0.166666667   0.401991699    0   0   0
Ta1      0.666666667   0.166666667   0.401991699    0   0   0
Ta1      0.166666667   0.666666667   0.401991699    0   0   0
Ta1      0.666666667   0.666666667   0.401991699    0   0   0
Ta1      0.833333333   0.333333333   0.500000000    0   0   0
Ta1      0.333333333   0.333333333   0.500000000    0   0   0
Ta1      0.833333333   0.833333333   0.500000000    0   0   0
Ta1      0.333333333   0.833333333   0.500000000    0   0   0
Ta1      0.000000565  -0.000000161   0.611704058
Ta1      0.498732228   0.002535513   0.592922733
Ta1      0.002536529   0.498731526   0.592922712
Ta1      0.498733456   0.498732899   0.592921948
N1      -0.000000034  -0.000000067   0.684949077
H1      -0.000000032   0.000000348   0.725755685
End final coordinates

     Writing output data file calc.save

     General routines

     Parallel routines

   This run was terminated on:  10:17:15  23Apr2018

   JOB DONE.
Job  /afs/slac/g/suncat/bin/suncat-tsmpirun -x LD_LIBRARY_PATH -wdir /scratch/qe470747_NhdOp pw.x -npool 4 -in pw.inp

TID   HOST_NAME   COMMAND_LINE            STATUS            TERMINATION_TIME
00000 suncat0073 pw.x -npool 4 -i  Done                     04/23/2018 10:17:16
00001 suncat0073 pw.x -npool 4 -i  Done                     04/23/2018 10:17:15
00002 suncat0073 pw.x -npool 4 -i  Done                     04/23/2018 10:17:16
00003 suncat0073 pw.x -npool 4 -i  Done                     04/23/2018 10:17:16
00004 suncat0073 pw.x -npool 4 -i  Done                     04/23/2018 10:17:16
00005 suncat0073 pw.x -npool 4 -i  Done                     04/23/2018 10:17:16
00006 suncat0073 pw.x -npool 4 -i  Done                     04/23/2018 10:17:16
00007 suncat0073 pw.x -npool 4 -i  Done                     04/23/2018 10:17:16
00008 suncat0194 pw.x -npool 4 -i  Done                     04/23/2018 10:17:15
00009 suncat0194 pw.x -npool 4 -i  Done                     04/23/2018 10:17:15
00010 suncat0194 pw.x -npool 4 -i  Done                     04/23/2018 10:17:16
00011 suncat0194 pw.x -npool 4 -i  Done                     04/23/2018 10:17:15
00012 suncat0194 pw.x -npool 4 -i  Done                     04/23/2018 10:17:15
00013 suncat0194 pw.x -npool 4 -i  Done                     04/23/2018 10:17:15
00014 suncat0194 pw.x -npool 4 -i  Done                     04/23/2018 10:17:16
00015 suncat0194 pw.x -npool 4 -i  Done                     04/23/2018 10:17:15
00016 suncat0152 pw.x -npool 4 -i  Done                     04/23/2018 10:17:15
00017 suncat0152 pw.x -npool 4 -i  Done                     04/23/2018 10:17:15
00018 suncat0152 pw.x -npool 4 -i  Done                     04/23/2018 10:17:15
00019 suncat0152 pw.x -npool 4 -i  Done                     04/23/2018 10:17:15
00020 suncat0152 pw.x -npool 4 -i  Done                     04/23/2018 10:17:15
00021 suncat0152 pw.x -npool 4 -i  Done                     04/23/2018 10:17:15
00022 suncat0152 pw.x -npool 4 -i  Done                     04/23/2018 10:17:15
00023 suncat0152 pw.x -npool 4 -i  Done                     04/23/2018 10:17:15
00024 suncat0113 pw.x -npool 4 -i  Done                     04/23/2018 10:17:15
00025 suncat0113 pw.x -npool 4 -i  Done                     04/23/2018 10:17:16
00026 suncat0113 pw.x -npool 4 -i  Done                     04/23/2018 10:17:15
00027 suncat0113 pw.x -npool 4 -i  Done                     04/23/2018 10:17:15
00028 suncat0113 pw.x -npool 4 -i  Done                     04/23/2018 10:17:15
00029 suncat0113 pw.x -npool 4 -i  Done                     04/23/2018 10:17:15
00030 suncat0113 pw.x -npool 4 -i  Done                     04/23/2018 10:17:15
00031 suncat0113 pw.x -npool 4 -i  Done                     04/23/2018 10:17:15