     Program PWSCF v.5.1rc2 (svn rev. 11289) starts on 25Apr2018 at  6:55:59

     Current dimensions of program PWSCF are:
     Max number of different atomic species (ntypx) = 10
     Max number of k-points (npk) =  40000
     Max angular momentum in pseudopotentials (lmaxx) =  3
     Presently stress not available with electric field

     IMPORTANT: XC functional enforced from input :
     Exchange-correlation      = BEEF-VDW ( 1  4 27 13 2)
     Any further DFT definition will be discarded
     Please, verify this is what you really want

     Subspace diagonalization in iterative solution of the eigenvalue problem:
     a serial algorithm will be used

     bravais-lattice index     =            0
     lattice parameter (alat)  =       1.8897  a.u.
     unit-cell volume          =    6082.7792 (a.u.)^3
     number of atoms/cell      =           14
     number of atomic types    =            3
     number of electrons       =       149.00
     number of Kohn-Sham states=           84
     kinetic-energy cutoff     =      36.7493  Ry
     charge density cutoff     =     367.4932  Ry
     convergence threshold     =      1.0E-05
     mixing beta               =       0.3000
     number of iterations used =           10  plain     mixing
     Exchange-correlation      = BEEF-VDW ( 1  4 27 13 2)
     nstep                     =           50

     celldm(1)=   1.889726  celldm(2)=   0.000000  celldm(3)=   0.000000
     celldm(4)=   0.000000  celldm(5)=   0.000000  celldm(6)=   0.000000

     crystal axes: (cart. coord. in units of alat)
               a(1) = (   6.421223   0.000000   0.000000 )
               a(2) = (   3.210611   5.560942   0.000000 )
               a(3) = (   0.000000   0.000000  25.242906 )

     reciprocal axes: (cart. coord. in units 2 pi/alat)
               b(1) = (  0.155734 -0.089913  0.000000 )
               b(2) = (  0.000000  0.179826  0.000000 )
               b(3) = (  0.000000  0.000000  0.039615 )

     PseudoPot. # 1 for Zr read from file:
     /u/if/mamunm/psp/gbrv1.5pbe/Zr.UPF
     MD5 check sum: 5db81b1e868ab7776c4564c113de050b
     Pseudo is Ultrasoft + core correction, Zval = 12.0
     Generated by new atomic code, or converted to UPF format
     Using radial grid of  887 points,  6 beta functions with:
                l(1) =   0
                l(2) =   0
                l(3) =   1
                l(4) =   1
                l(5) =   2
                l(6) =   2
     Q(r) pseudized with  6 coefficients,  rinner =    1.200   1.200   1.200
                                                       1.200   1.200

     PseudoPot. # 2 for C  read from file:
     /u/if/mamunm/psp/gbrv1.5pbe/C.UPF
     MD5 check sum: d1aef80898a10debaa0f26306b886e00
     Pseudo is Ultrasoft + core correction, Zval =  4.0
     Generated by new atomic code, or converted to UPF format
     Using radial grid of  721 points,  4 beta functions with:
                l(1) =   0
                l(2) =   0
                l(3) =   1
                l(4) =   1
     Q(r) pseudized with  8 coefficients,  rinner =    1.100   1.100   1.100

     PseudoPot. # 3 for H  read from file:
     /u/if/mamunm/psp/gbrv1.5pbe/H.UPF
     MD5 check sum: 761ae9a214b05c3daf00ab9f6b793d6f
     Pseudo is Ultrasoft, Zval =  1.0
     Generated by new atomic code, or converted to UPF format
     Using radial grid of  615 points,  2 beta functions with:
                l(1) =   0
                l(2) =   0
     Q(r) pseudized with  8 coefficients,  rinner =    0.700

     vdW kernel table read from file vdW_kernel_table
     MD5 check sum: 095c7af220d748ca6e76c0b4c6cfb241

     atomic species   valence    mass     pseudopotential
        Zr1           12.00    91.22400     Zr( 1.00)
        C1             4.00    12.01100     C ( 1.00)
        H1             1.00     1.00800     H ( 1.00)

     No symmetry found

   Cartesian axes

     site n.     atom                  positions (alat units)
         1           Zr1 tau(   1) = (   1.6053057   0.9268237  10.0000000  )
         2           Zr1 tau(   2) = (   4.8159170   0.9268237  10.0000000  )
         3           Zr1 tau(   3) = (   3.2106113   3.7072946  10.0000000  )
         4           Zr1 tau(   4) = (   6.4212227   3.7072946  10.0000000  )
         5           Zr1 tau(   5) = (   6.4212227   1.8536473  12.6214532  )
         6           Zr1 tau(   6) = (   3.2106113   1.8536473  12.6214532  )
         7           Zr1 tau(   7) = (   8.0265283   4.6341183  12.6214532  )
         8           Zr1 tau(   8) = (   4.8159170   4.6341183  12.6214532  )
         9           Zr1 tau(   9) = (   0.0000000   0.0000000  15.2429064  )
        10           Zr1 tau(  10) = (   3.2106113   0.0000000  15.2429064  )
        11           Zr1 tau(  11) = (   1.6053057   2.7804710  15.2429064  )
        12           Zr1 tau(  12) = (   4.8159170   2.7804710  15.2429064  )
        13           C1  tau(  13) = (   1.6053057   0.9268237  16.8744064  )
        14           H1  tau(  14) = (   1.6053057   0.9268237  17.9744064  )

     number of k points=    20  Fermi-Dirac smearing, width (Ry)=  0.0110
                       cart. coord. in units 2pi/alat
        k(    1) = (   0.0000000   0.0000000   0.0000000), wk =   0.0555556
        k(    2) = (   0.0000000   0.0299709   0.0000000), wk =   0.1111111
        k(    3) = (   0.0000000   0.0599419   0.0000000), wk =   0.1111111
        k(    4) = (   0.0000000  -0.0899128   0.0000000), wk =   0.0555556
        k(    5) = (   0.0259556  -0.0149855   0.0000000), wk =   0.1111111
        k(    6) = (   0.0259556   0.0149855   0.0000000), wk =   0.1111111
        k(    7) = (   0.0259556   0.0449564   0.0000000), wk =   0.1111111
        k(    8) = (   0.0259556  -0.1048983   0.0000000), wk =   0.1111111
        k(    9) = (   0.0259556  -0.0749274   0.0000000), wk =   0.1111111
        k(   10) = (   0.0259556  -0.0449564   0.0000000), wk =   0.1111111
        k(   11) = (   0.0519112  -0.0299709   0.0000000), wk =   0.1111111
        k(   12) = (   0.0519112   0.0000000   0.0000000), wk =   0.1111111
        k(   13) = (   0.0519112   0.0299709   0.0000000), wk =   0.1111111
        k(   14) = (   0.0519112  -0.1198838   0.0000000), wk =   0.1111111
        k(   15) = (   0.0519112  -0.0899128   0.0000000), wk =   0.1111111
        k(   16) = (   0.0519112  -0.0599419   0.0000000), wk =   0.1111111
        k(   17) = (  -0.0778668   0.0449564   0.0000000), wk =   0.0555556
        k(   18) = (  -0.0778668   0.0749274   0.0000000), wk =   0.1111111
        k(   19) = (  -0.0778668   0.1048983   0.0000000), wk =   0.1111111
        k(   20) = (  -0.0778668  -0.0449564   0.0000000), wk =   0.0555556

     Largest allocated arrays     est. size (Mb)     dimensions
     Largest temporary arrays     est. size (Mb)     dimensions

     Initial potential from superposition of free atoms
     Check: negative starting charge=   -0.729046

     starting charge  148.97416, renormalised to  149.00000

     negative rho (up, down):  7.292E-01 0.000E+00

     *
     * You are using vdW-DF for exchange-correlation in this calculation.
     * Please cite the following three references that made this development
     * possible:
     *
     *   M. Dion, H. Rydberg, E. Schroder, D. C. Langreth, and
     *   B. I. Lundqvist, Phys. Rev. Lett. 92, 246401 (2004).
     *
     *   T. Thonhauser, V. R. Cooper, S. Li, A. Puzder, P. Hyldgaard, and
     *   D. C. Langreth, Phys. Rev. B 76, 125112 (2007).
     *
     *   G. Roman-Perez and J. M. Soler, Phys. Rev. Lett. 103, 096102 (2009).
     *
     *
     * If you are using vdW-DF2, please also cite:
     *
     *   K. Lee, E. D. Murray, L. Kong, B. I. Lundqvist, and
     *   D. C. Langreth, Phys. Rev. B 82, 081101(R) (2010).
     *
     *
     * If you are calculating the stress with vdW-DF, please also cite:
     *
     *   R. Sabatini, E. Kucukbenli, B. Kolb, T. Thonhauser, and
     *   S. de Gironcoli, J. Phys.: Condens. Matter 24, 424209 (2012).
     *

     Carrying out vdW-DF run using the following parameters:

     Nqs =      20    Nr_points =    1024   r_max =   100.000
     q_mesh =
               0.00001000     0.04494208     0.09755937     0.15916263
               0.23128650     0.31572767     0.41458969     0.53033537
               0.66584808     0.82450364     1.01025438     1.22772762
               1.48234092     1.78043706     2.12944203     2.53805004
               3.01644009     3.57652955     4.23227104     5.00000000

     Gradients computed in reciprocal space

     Adding external electric field

     Computed dipole along edir(3) :
        Dipole               -0.0069 Ry au,         -0.0176 Debye
        Dipole field         -0.0000 Ry au

        Potential amp.        0.0013 Ry
        Total length         46.5096 bohr

     Starting wfc are  161 randomized atomic wfcs

     Self-consistent Calculation

     iteration #  1     ecut=    36.75 Ry     beta=0.30
     Davidson diagonalization with overlap
     ethr =  1.00E-02,  avg # of iterations =  2.0

[...]

     total energy              =   -1206.41096543 Ry
     Harris-Foulkes estimate   =   -1210.29079578 Ry
     estimated scf accuracy    <       8.29565964 Ry

[...]

     iteration # 15     ecut=    36.75 Ry     beta=0.30
     Davidson diagonalization with overlap
     c_bands:  1 eigenvalues not converged
     ethr =  1.26E-08,  avg # of iterations =  6.8

[...]

     End of self-consistent calculation

          k = 0.0000 0.0000 0.0000 ( 22923 PWs)   bands (ev):

   -47.8713 -47.8320 -47.7436 -47.7436 -47.7394 -47.6879 -47.6279 -47.6278
   -47.5025 -47.4284 -47.4283 -47.3971 -26.1209 -26.1209 -26.1100 -26.0708
   -26.0708 -26.0474 -25.9971 -25.9471 -25.9238 -25.9238 -25.8414 -25.7238
   -25.6971 -25.6971 -25.6111 -25.5778 -25.5778 -25.5696 -25.5658 -25.5658
   -25.4995 -25.4995 -25.4798 -25.4019 -25.4019 -25.3449 -25.3449 -25.3335
   -25.2921 -25.2921 -25.2770 -25.2438 -25.2329 -25.2329 -25.0885 -25.0885
    -8.7325  -3.6072  -2.9603  -2.0528  -1.4395  -1.1635  -1.1635  -1.1066
    -1.0220  -1.0220  -0.8325  -0.6593  -0.6593  -0.4378  -0.3740  -0.3740
    -0.0033   0.2680   0.2680   1.0161   1.0161   1.0827   1.3733   1.6532
     1.7913   1.7913   1.8581   2.0473   2.1701   2.1816   2.1816   2.3837
     2.3837   2.4811   2.6133   2.6148

[...]

          k =-0.0779 0.0450 0.0000 ( 22880 PWs)   bands (ev):

[...]

     the Fermi energy is     1.4424 ev

!    total energy              =   -1209.64861130 Ry
     Harris-Foulkes estimate   =   -1209.64862137 Ry
     estimated scf accuracy    <       0.00000757 Ry

     The total energy is the sum of the following terms:

     one-electron contribution =   -8397.88046616 Ry
     hartree contribution      =    4191.53764732 Ry
     xc contribution           =    -224.82485980 Ry
     ewald contribution        =    3221.63218955 Ry
     electric field correction =       0.00000381 Ry
     smearing contrib. (-TS)   =      -0.11312603 Ry

     convergence has been achieved in  17 iterations

 BEEF-vdW xc energy contributions
           1 :   -192.497526972511
           2 :    174.171013477880
           3 :   -143.319188888905
           4 :    108.649174993379
           5 :   -77.9841288706631
           6 :    55.5469011845625
           7 :   -41.3233069892191
           8 :    32.4026387189081
           9 :   -25.2558100733877
          10 :    17.6593245862582
          11 :   -9.42043540661228
          12 :    1.83361272692275
          13 :    3.54586489409525
          14 :   -6.00159302891575
          15 :    6.04984179694290
          16 :   -5.03199336648674
          17 :    4.27105980938890
          18 :   -4.36167939083995
          19 :    5.00474782524935
          20 :   -5.41008738587016
          21 :    4.93943631850962
          22 :   -3.55365511913718
          23 :    1.80676485426957
          24 :  -0.450395106169481
          25 :  -4.904762507499072E-002
          26 :  -0.238467086590731
          27 :   0.818212216121310
          28 :   -1.13233749623529
          29 :   0.916294686652748
          30 :  -0.327260995483527
          31 :   -22.3806001664587
          32 :   -16.6791906341487

     Forces acting on atoms (Ry/au):

     negative rho (up, down):  7.499E-01 0.000E+00
     atom    1 type  1   force =    -0.00000034   -0.00000328    0.01313786
     atom    2 type  1   force =    -0.00000079    0.00081679    0.01453719
     atom    3 type  1   force =     0.00070968   -0.00040761    0.01453701
     atom    4 type  1   force =    -0.00070904   -0.00040622    0.01453757
     atom    5 type  1   force =    -0.00418238    0.00241845   -0.00191046
     atom    6 type  1   force =     0.00418193    0.00241674   -0.00190960
     atom    7 type  1   force =    -0.00000232   -0.00000327   -0.00829795
     atom    8 type  1   force =     0.00000189   -0.00483263   -0.00191149
     atom    9 type  1   force =     0.02657632    0.01534087    0.02798533
     atom   10 type  1   force =    -0.02657762    0.01534047    0.02798440
     atom   11 type  1   force =    -0.00000075   -0.03068521    0.02798367
     atom   12 type  1   force =     0.00000019    0.00000316   -0.00958061
     atom   13 type  2   force =     0.00000294    0.00000152   -0.11201999
     atom   14 type  3   force =     0.00000029    0.00000021   -0.00507293

     Total force =     0.133568     Total SCF correction =     0.001823

     entering subroutine stress ...

     negative rho (up, down):  7.499E-01 0.000E+00
          total   stress  (Ry/bohr**3)                   (kbar)     P=  -15.27
  -0.00008293  -0.00000000   0.00000000        -12.20     -0.00      0.00
  -0.00000000  -0.00008293   0.00000000         -0.00    -12.20      0.00
   0.00000000   0.00000000  -0.00014552          0.00      0.00    -21.41

     BFGS Geometry Optimization

     number of scf cycles    =   1
     number of bfgs steps    =   0

     energy   new            =   -1209.6486112950 Ry

     new trust radius        =       0.1120199919 bohr
     new conv_thr            =       0.0000099958 Ry

ATOMIC_POSITIONS (crystal)
Zr1      0.166666667   0.166666667   0.396150897    0   0   0
Zr1      0.666666667   0.166666667   0.396150897    0   0   0
Zr1      0.166666667   0.666666667   0.396150897    0   0   0
Zr1      0.666666667   0.666666667   0.396150897    0   0   0
Zr1      0.833333333   0.333333333   0.500000000    0   0   0
Zr1      0.333333333   0.333333333   0.500000000    0   0   0
Zr1      0.833333333   0.833333333   0.500000000    0   0   0
Zr1      0.333333333   0.833333333   0.500000000    0   0   0
Zr1      0.001460256   0.001459832   0.604435771
Zr1      0.497079824   0.001459794   0.604435751
Zr1      0.001459935   0.497080006   0.604435736
Zr1      0.499999865   0.500000301   0.603648261
C1       0.166666837   0.166666811   0.666132801
H1       0.166666680   0.166666687   0.711951375

     Writing output data file calc.save
     Check: negative starting charge=   -0.729046
     NEW-OLD atomic charge density approx. for the potential
     Check: negative starting charge=   -0.728705

[...]

     energy   old            =   -1209.6486112950 Ry
     energy   new            =   -1209.6617895446 Ry

     CASE: energy  _new < energy  _old

[...]

     iteration #  1     ecut=    36.75 Ry     beta=0.30
     Davidson diagonalization with overlap
     c_bands:  2 eigenvalues not converged
     ethr =  1.00E-06,  avg # of iterations = 12.5

[...]

     Threshold (ethr) on eigenvalues was too large:
     Diagonalizing with lowered threshold

     Davidson diagonalization with overlap
     ethr =  9.89E-08,  avg # of iterations =  1.2

[...]

     Total force =     0.006428     Total SCF correction =     0.000361

[...]

     Total force =     0.005219     Total SCF correction =     0.000627
     SCF correction compared to forces is large: reduce conv_thr to get better values

[...]

     number of scf cycles    =  17
     number of bfgs steps    =  16

     energy   old            =   -1209.7077271819 Ry
     energy   new            =   -1209.7077941400 Ry

     CASE: energy  _new < energy  _old

     new trust radius        =       0.0203445116 bohr
     new conv_thr            =       0.0000001000 Ry

ATOMIC_POSITIONS (crystal)
Zr1      0.166666667   0.166666667   0.396150897    0   0   0
Zr1      0.666666667   0.166666667   0.396150897    0   0   0
Zr1      0.166666667   0.666666667   0.396150897    0   0   0
Zr1      0.666666667   0.666666667   0.396150897    0   0   0
Zr1      0.833333333   0.333333333   0.500000000    0   0   0
Zr1      0.333333333   0.333333333   0.500000000    0   0   0
Zr1      0.833333333   0.833333333   0.500000000    0   0   0
Zr1      0.333333333   0.833333333   0.500000000    0   0   0
Zr1      0.000109966   0.000107365   0.601695063
Zr1      0.499782869   0.000108092   0.601695835
Zr1      0.000109216   0.499783228   0.601695382
Zr1      0.499999716   0.500000661   0.597444731
C1       0.166665571   0.166667511   0.648461775
H1       0.166666387   0.166666078   0.692226132

     Writing output data file calc.save
     Check: negative starting charge=   -0.728288
     NEW-OLD atomic charge density approx. for the potential
     Check: negative starting charge=   -0.728194

[...]

     Self-consistent Calculation

[...]

     Threshold (ethr) on eigenvalues was too large:
     Diagonalizing with lowered threshold

     Davidson diagonalization with overlap
     ethr =  9.55E-08,  avg # of iterations =  2.0

[...]

     total energy              =   -1209.70782818 Ry
     Harris-Foulkes estimate   =   -1209.70782820 Ry
     estimated scf accuracy    <       0.00000012 Ry

     iteration # 10     ecut=    36.75 Ry     beta=0.30
     Davidson diagonalization with overlap
     ethr =  8.33E-11,  avg # of iterations =  3.5

[...]

     negative rho (up, down):  7.491E-01 0.000E+00

     Adding external electric field

     Computed dipole along edir(3) :
        Dipole                0.0827 Ry au,          0.2102 Debye
        Dipole field          0.0002 Ry au

        Potential amp.       -0.0159 Ry
        Total length         46.5096 bohr

     End of self-consistent calculation

[...]

          k = 0.0519-0.0599 0.0000 ( 22856 PWs)   bands (ev):

[...]

          k =-0.0779-0.0450 0.0000 ( 22880 PWs)   bands (ev):

   -47.6522 -47.6473 -47.6074 -47.6010 -47.5672 -47.3772 -47.3492 -47.3263
   -47.2532 -47.2451 -47.2149 -47.2013 -25.8432 -25.8411 -25.7918 -25.7600
   -25.7300 -25.7183 -25.6834 -25.6740 -25.6439 -25.6265 -25.6153 -25.5873
   -25.5722 -25.5625 -25.5230 -25.5107 -25.5017 -25.4083 -25.3794 -25.3491
   -25.3489 -25.3429 -25.2940 -25.2472 -25.1971 -25.1879 -25.1860 -25.1596
   -25.1571 -25.0987 -25.0859 -25.0732 -25.0683 -25.0345 -24.9607 -24.9419
    -9.0373  -3.1266  -2.0055  -1.8309  -1.2185  -0.7790  -0.6209  -0.5374
    -0.2696  -0.2296  -0.1634  -0.1159  -0.0609   0.4076   0.5339   0.5933
     0.6620   0.6691   0.6819   0.7273   1.0609   1.0987   1.1070   1.1281
     1.1996   1.2994   1.3937   1.5289   1.5904   1.5907   1.7316   1.7417
     1.8634   1.9325   2.0169   2.3044

     the Fermi energy is     1.5792 ev

!    total energy              =   -1209.70782821 Ry
     Harris-Foulkes estimate   =   -1209.70782799 Ry
     estimated scf accuracy    <       0.00000002 Ry

     The total energy is the sum of the following terms:

     one-electron contribution =   -8575.58713438 Ry
     hartree contribution      =    4281.38137473 Ry
     xc contribution           =    -225.21351897 Ry
     ewald contribution        =    3309.82359668 Ry
     electric field correction =       0.00001412 Ry
     smearing contrib. (-TS)   =      -0.11216040 Ry

     convergence has been achieved in  10 iterations

 BEEF-vdW xc energy contributions
           1 :   -192.882730779114
           2 :    174.654170640425
           3 :   -143.904251342414
           4 :    109.237388117882
           5 :   -78.4355880366822
           6 :    55.7616442864240
           7 :   -41.2971678197420
           8 :    32.2269879207502
           9 :   -25.0641901748545
          10 :    17.5536984822074
          11 :   -9.42081452007295
          12 :    1.87977760396785
          13 :    3.54478505332054
          14 :   -6.10191277191302
          15 :    6.23321127393314
          16 :   -5.21660687436315
          17 :    4.36565791044791
          18 :   -4.32287451881399
          19 :    4.86006900815394
          20 :   -5.23543358315510
          21 :    4.80912903403407
          22 :   -3.49823060663306
          23 :    1.80469251392765
          24 :  -0.454387241137908
          25 :  -7.318460821517192E-002
          26 :  -0.188536410849395
          27 :   0.775253580121614
          28 :   -1.13094155849240
          29 :   0.963591855960885
          30 :  -0.393896926578549
          31 :   -22.4080978078701
          32 :   -16.7268530270525

     Forces acting on atoms (Ry/au):

     negative rho (up, down):  7.491E-01 0.000E+00
     atom    1 type  1   force =    -0.00000130    0.00000243    0.00999396
     atom    2 type  1   force =     0.00000113    0.00103188    0.01362090
     atom    3 type  1   force =     0.00089137   -0.00051640    0.01361989
     atom    4 type  1   force =    -0.00089173   -0.00051791    0.01361989
     atom    5 type  1   force =     0.00065565   -0.00037543   -0.01006866
     atom    6 type  1   force =    -0.00065492   -0.00037438   -0.01006922
     atom    7 type  1   force =     0.00000074   -0.00000350   -0.01964937
     atom    8 type  1   force =    -0.00000053    0.00075302   -0.01007199
     atom    9 type  1   force =     0.00028338    0.00016800   -0.00020145
     atom   10 type  1   force =    -0.00028159    0.00016479   -0.00020278
     atom   11 type  1   force =    -0.00000191   -0.00032874   -0.00020470
     atom   12 type  1   force =     0.00000136   -0.00000326   -0.00004179
     atom   13 type  2   force =    -0.00000125   -0.00000037   -0.00151979
     atom   14 type  3   force =    -0.00000040   -0.00000011    0.00117512

     Total force =     0.002034     Total SCF correction =     0.000311
     SCF correction compared to forces is large: reduce conv_thr to get better values

     entering subroutine stress ...

     negative rho (up, down):  7.491E-01 0.000E+00
          total   stress  (Ry/bohr**3)                   (kbar)     P=   -3.79
  -0.00001745   0.00000000  -0.00000000         -2.57      0.00     -0.00
   0.00000000  -0.00001745   0.00000000          0.00     -2.57      0.00
  -0.00000000   0.00000000  -0.00004248         -0.00      0.00     -6.25

     bfgs converged in  18 scf cycles and  17 bfgs steps
     (criteria: energy <  1.0E+00, force <  1.9E-03)

     End of BFGS Geometry Optimization

     Final energy   =   -1209.7078282101 Ry
Begin final coordinates

ATOMIC_POSITIONS (crystal)
Zr1      0.166666667   0.166666667   0.396150897    0   0   0
Zr1      0.666666667   0.166666667   0.396150897    0   0   0
Zr1      0.166666667   0.666666667   0.396150897    0   0   0
Zr1      0.666666667   0.666666667   0.396150897    0   0   0
Zr1      0.833333333   0.333333333   0.500000000    0   0   0
Zr1      0.333333333   0.333333333   0.500000000    0   0   0
Zr1      0.833333333   0.833333333   0.500000000    0   0   0
Zr1      0.333333333   0.833333333   0.500000000    0   0   0
Zr1      0.000109966   0.000107365   0.601695063
Zr1      0.499782869   0.000108092   0.601695835
Zr1      0.000109216   0.499783228   0.601695382
Zr1      0.499999716   0.500000661   0.597444731
C1       0.166665571   0.166667511   0.648461775
H1       0.166666387   0.166666078   0.692226132
End final coordinates

     Writing output data file calc.save

     General routines

     Parallel routines

   This run was terminated on:   9:25: 0  25Apr2018

   JOB DONE.
Job  /afs/slac/g/suncat/bin/suncat-tsmpirun -x LD_LIBRARY_PATH -wdir /scratch/qe366527_tYtsC pw.x -npool 4 -in pw.inp

TID   HOST_NAME   COMMAND_LINE            STATUS            TERMINATION_TIME
00000 suncat0081 pw.x -npool 4 -i  Done                     04/25/2018 09:25:00
00001 suncat0081 pw.x -npool 4 -i  Done                     04/25/2018 09:25:00
00002 suncat0081 pw.x -npool 4 -i  Done                     04/25/2018 09:25:00
00003 suncat0081 pw.x -npool 4 -i  Done                     04/25/2018 09:25:00
00004 suncat0081 pw.x -npool 4 -i  Done                     04/25/2018 09:25:00
00005 suncat0081 pw.x -npool 4 -i  Done                     04/25/2018 09:25:00
00006 suncat0081 pw.x -npool 4 -i  Done                     04/25/2018 09:25:00
00007 suncat0081 pw.x -npool 4 -i  Done                     04/25/2018 09:25:00
00008 suncat0074 pw.x -npool 4 -i  Done                     04/25/2018 09:25:00
00009 suncat0074 pw.x -npool 4 -i  Done                     04/25/2018 09:25:00
00010 suncat0074 pw.x -npool 4 -i  Done                     04/25/2018 09:25:00
00011 suncat0074 pw.x -npool 4 -i  Done                     04/25/2018 09:25:00
00012 suncat0074 pw.x -npool 4 -i  Done                     04/25/2018 09:25:00
00013 suncat0074 pw.x -npool 4 -i  Done                     04/25/2018 09:25:00
00014 suncat0074 pw.x -npool 4 -i  Done                     04/25/2018 09:25:00
00015 suncat0074 pw.x -npool 4 -i  Done                     04/25/2018 09:25:00
00016 suncat0166 pw.x -npool 4 -i  Done                     04/25/2018 09:25:00
00017 suncat0166 pw.x -npool 4 -i  Done                     04/25/2018 09:25:00
00018 suncat0166 pw.x -npool 4 -i  Done                     04/25/2018 09:25:00
00019 suncat0166 pw.x -npool 4 -i  Done                     04/25/2018 09:25:00
00020 suncat0166 pw.x -npool 4 -i  Done                     04/25/2018 09:25:00
00021 suncat0166 pw.x -npool 4 -i  Done                     04/25/2018 09:25:00
00022 suncat0166 pw.x -npool 4 -i  Done                     04/25/2018 09:25:00
00023 suncat0166 pw.x -npool 4 -i  Done                     04/25/2018 09:25:00
00024 suncat0262 pw.x -npool 4 -i  Done                     04/25/2018 09:25:00
00025 suncat0262 pw.x -npool 4 -i  Done                     04/25/2018 09:25:00
00026 suncat0262 pw.x -npool 4 -i  Done                     04/25/2018 09:25:00
00027 suncat0262 pw.x -npool 4 -i  Done                     04/25/2018 09:25:00
00028 suncat0262 pw.x -npool 4 -i  Done                     04/25/2018 09:25:00
00029 suncat0262 pw.x -npool 4 -i  Done                     04/25/2018 09:25:00
00030 suncat0262 pw.x -npool 4 -i  Done                     04/25/2018 09:25:00
00031 suncat0262 pw.x -npool 4 -i  Done                     04/25/2018 09:25:00