     Program PWSCF v.5.1rc2 (svn rev. 11289) starts on 24Apr2018 at 10: 6:26

     Current dimensions of program PWSCF are:
     Max number of different atomic species (ntypx) = 10
     Max number of k-points (npk) =  40000
     Max angular momentum in pseudopotentials (lmaxx) =  3
     Presently stress not available with electric field

     IMPORTANT: XC functional enforced from input :
     Exchange-correlation      = BEEF-VDW ( 1  4 27 13 2)
     Any further DFT definition will be discarded
     Please, verify this is what you really want

     Subspace diagonalization in iterative solution of the eigenvalue problem:
     a serial algorithm will be used

     bravais-lattice index     =            0
     lattice parameter (alat)  =       1.8897  a.u.
     unit-cell volume          =    4158.3597 (a.u.)^3
     number of atoms/cell      =           14
     number of atomic types    =            3
     number of electrons       =       163.00
     number of Kohn-Sham states=           91
     kinetic-energy cutoff     =      36.7493  Ry
     charge density cutoff     =     367.4932  Ry
     convergence threshold     =      1.0E-05
     mixing beta               =       0.3000
     number of iterations used =           10  plain     mixing
     Exchange-correlation      = BEEF-VDW ( 1  4 27 13 2)
     nstep                     =           50

     celldm(1)=   1.889726  celldm(2)=   0.000000  celldm(3)=   0.000000
     celldm(4)=   0.000000  celldm(5)=   0.000000  celldm(6)=   0.000000

     crystal axes: (cart. coord. in units of alat)
               a(1) = (   5.399178   0.000000   0.000000 )
               a(2) = (   2.699589   4.675825   0.000000 )
               a(3) = (   0.000000   0.000000  24.408411 )

     reciprocal axes: (cart. coord. in units 2 pi/alat)
               b(1) = (  0.185213 -0.106933  0.000000 )
               b(2) = (  0.000000  0.213866  0.000000 )
               b(3) = (  0.000000  0.000000  0.040969 )

     PseudoPot. # 1 for V  read from file:
     /u/if/mamunm/psp/gbrv1.5pbe/V.UPF
     MD5 check sum: 22b79981416ebb76fdaf5b1b8640f6fb
     Pseudo is Ultrasoft + core correction, Zval = 13.0
     Generated by new atomic code, or converted to UPF format
     Using radial grid of  853 points,  6 beta functions with:
                l(1) =   0
                l(2) =   0
                l(3) =   1
                l(4) =   1
                l(5) =   2
                l(6) =   2
     Q(r) pseudized with  8 coefficients,  rinner =    1.100   1.100   1.100
                                                       1.100   1.100

     PseudoPot. # 2 for O  read from file:
     /u/if/mamunm/psp/gbrv1.5pbe/O.UPF
     MD5 check sum: 734c27235a0248c51dbae37a1fbe46ec
     Pseudo is Ultrasoft + core correction, Zval =  6.0
     Generated by new atomic code, or converted to UPF format
     Using radial grid of  737 points,  5 beta functions with:
                l(1) =   0
                l(2) =   0
                l(3) =   1
                l(4) =   1
                l(5) =   2
     Q(r) pseudized with  8 coefficients,  rinner =    0.900   0.900   0.900
                                                       0.900   0.900

     PseudoPot. # 3 for H  read from file:
     /u/if/mamunm/psp/gbrv1.5pbe/H.UPF
     MD5 check sum: 761ae9a214b05c3daf00ab9f6b793d6f
     Pseudo is Ultrasoft, Zval =  1.0
     Generated by new atomic code, or converted to UPF format
     Using radial grid of  615 points,  2 beta functions with:
                l(1) =   0
                l(2) =   0
     Q(r) pseudized with  8 coefficients,  rinner =    0.700

     vdW kernel table read from file vdW_kernel_table
     MD5 check sum: 095c7af220d748ca6e76c0b4c6cfb241

     atomic species   valence    mass     pseudopotential
        V1            13.00    50.94150     V ( 1.00)
        O1             6.00    15.99900     O ( 1.00)
        H1             1.00     1.00800     H ( 1.00)

     No symmetry found

   Cartesian axes

     site n.     atom                  positions (alat units)
         1           V1  tau(   1) = (   1.3497945   0.7793042  10.0000000  )
         2           V1  tau(   2) = (   4.0493836   0.7793042  10.0000000  )
         3           V1  tau(   3) = (   2.6995891   3.1172170  10.0000000  )
         4           V1  tau(   4) = (   5.3991782   3.1172170  10.0000000  )
         5           V1  tau(   5) = (   5.3991782   1.5586085  12.2042053  )
         6           V1  tau(   6) = (   2.6995891   1.5586085  12.2042053  )
         7           V1  tau(   7) = (   6.7489727   3.8965212  12.2042053  )
         8           V1  tau(   8) = (   4.0493836   3.8965212  12.2042053  )
         9           V1  tau(   9) = (   0.0000000   0.0000000  14.4084105  )
        10           V1  tau(  10) = (   2.6995891   0.0000000  14.4084105  )
        11           V1  tau(  11) = (   1.3497945   2.3379127  14.4084105  )
        12           V1  tau(  12) = (   4.0493836   2.3379127  14.4084105  )
        13           O1  tau(  13) = (   2.6995891   1.5586085  15.8319105  )
        14           H1  tau(  14) = (   2.6995891   1.5586085  16.7819105  )

     number of k points=    20  Fermi-Dirac smearing, width (Ry)=  0.0110
                       cart. coord. in units 2pi/alat
        k(    1) = (   0.0000000   0.0000000   0.0000000), wk =   0.0555556
        k(    2) = (   0.0000000   0.0356443   0.0000000), wk =   0.1111111
        k(    3) = (   0.0000000   0.0712887   0.0000000), wk =   0.1111111
        k(    4) = (   0.0000000  -0.1069330   0.0000000), wk =   0.0555556
        k(    5) = (   0.0308689  -0.0178222   0.0000000), wk =   0.1111111
        k(    6) = (   0.0308689   0.0178222   0.0000000), wk =   0.1111111
        k(    7) = (   0.0308689   0.0534665   0.0000000), wk =   0.1111111
        k(    8) = (   0.0308689  -0.1247552   0.0000000), wk =   0.1111111
        k(    9) = (   0.0308689  -0.0891108   0.0000000), wk =   0.1111111
        k(   10) = (   0.0308689  -0.0534665   0.0000000), wk =   0.1111111
        k(   11) = (   0.0617378  -0.0356443   0.0000000), wk =   0.1111111
        k(   12) = (   0.0617378   0.0000000   0.0000000), wk =   0.1111111
        k(   13) = (   0.0617378   0.0356443   0.0000000), wk =   0.1111111
        k(   14) = (   0.0617378  -0.1425773   0.0000000), wk =   0.1111111
        k(   15) = (   0.0617378  -0.1069330   0.0000000), wk =   0.1111111
        k(   16) = (   0.0617378  -0.0712887   0.0000000), wk =   0.1111111
        k(   17) = (  -0.0926067   0.0534665   0.0000000), wk =   0.0555556
        k(   18) = (  -0.0926067   0.0891108   0.0000000), wk =   0.1111111
        k(   19) = (  -0.0926067   0.1247552   0.0000000), wk =   0.1111111
        k(   20) = (  -0.0926067  -0.0534665   0.0000000), wk =   0.0555556

     Largest allocated arrays     est. size (Mb)     dimensions
     Largest temporary arrays     est. size (Mb)     dimensions

     Check: negative/imaginary core charge=   -0.000001    0.000000

     Initial potential from superposition of free atoms
     Check: negative starting charge=   -0.011598

     starting charge  162.98526, renormalised to  163.00000

     negative rho (up, down):  1.160E-02 0.000E+00

     *
     * You are using vdW-DF for exchange-correlation in this calculation.
     * Please cite the following three references that made this development
     * possible:
     *
     *   M. Dion, H. Rydberg, E. Schroder, D. C. Langreth, and
     *   B. I. Lundqvist, Phys. Rev. Lett. 92, 246401 (2004).
     *
     *   T. Thonhauser, V. R. Cooper, S. Li, A. Puzder, P. Hyldgaard, and
     *   D. C. Langreth, Phys. Rev. B 76, 125112 (2007).
     *
     *   G. Roman-Perez and J. M. Soler, Phys. Rev. Lett. 103, 096102 (2009).
     *
     *
     * If you are using vdW-DF2, please also cite:
     *
     *   K. Lee, E. D. Murray, L. Kong, B. I. Lundqvist, and
     *   D. C. Langreth, Phys. Rev. B 82, 081101(R) (2010).
     *
     *
     * If you are calculating the stress with vdW-DF, please also cite:
     *
     *   R. Sabatini, E. Kucukbenli, B. Kolb, T. Thonhauser, and
     *   S. de Gironcoli, J. Phys.: Condens. Matter 24, 424209 (2012).
     *

     Carrying out vdW-DF run using the following parameters:

     Nqs =      20    Nr_points =    1024   r_max =   100.000
     q_mesh =
               0.00001000     0.04494208     0.09755937     0.15916263
               0.23128650     0.31572767     0.41458969     0.53033537
               0.66584808     0.82450364     1.01025438     1.22772762
               1.48234092     1.78043706     2.12944203     2.53805004
               3.01644009     3.57652955     4.23227104     5.00000000

     Gradients computed in reciprocal space

     Adding external electric field

     Computed dipole along edir(3) :
        Dipole               -0.0044 Ry au,         -0.0112 Debye
        Dipole field         -0.0000 Ry au

        Potential amp.        0.0012 Ry
        Total length         44.9721 bohr

     Starting wfc are  125 randomized atomic wfcs

     Self-consistent Calculation

     iteration #  1     ecut=    36.75 Ry     beta=0.30
     Davidson diagonalization with overlap
     ethr =  1.00E-02,  avg # of iterations =  2.4

[...]

     total energy              =   -1777.34353193 Ry
     Harris-Foulkes estimate   =   -1783.63201489 Ry
     estimated scf accuracy    <      12.95102905 Ry

[...]

     iteration # 25     ecut=    36.75 Ry     beta=0.30
     Davidson diagonalization with overlap
     c_bands:  1 eigenvalues not converged
     ethr =  3.99E-08,  avg # of iterations =  7.3

[...]

     End of self-consistent calculation

          k = 0.0000 0.0000 0.0000 ( 15569 PWs)   bands (ev):

   -62.6246 -62.5489 -62.5137 -62.5133 -62.4701 -62.4513 -62.4418 -62.4411
   -62.4071 -62.3864 -62.3860 -62.3838 -36.7655 -36.6856 -36.6853 -36.6531
   -36.6428 -36.6397 -36.6396 -36.5521 -36.5445 -36.5443 -36.4096 -36.3641
   -36.3638 -36.2812 -36.2656 -36.2622 -36.2618 -36.2077 -36.2074 -36.2023
   -36.1447 -36.1442 -36.1241 -36.1229 -36.1151 -36.1147 -36.0784 -36.0407
   -36.0403 -36.0400 -36.0304 -36.0302 -35.9854 -35.9854 -35.9139 -35.9139
   -19.8007  -7.9428  -4.2960  -3.9235  -3.9235  -2.6738  -1.6745  -1.3433
    -1.3431  -1.2701  -1.0326  -1.0028  -1.0027  -0.6053  -0.5764  -0.5763
    -0.5443  -0.5442  -0.4445   0.3348   0.3350   0.4287   1.1256   1.3387
     1.3387   1.3973   1.5469   1.7028   1.8408   1.8408   1.9529   1.9650
     1.9651   2.0287   2.0288   2.0952   2.1271   2.1272   2.1931   2.1933
     2.2420   2.6288   2.6289

[...]

          k =-0.0926 0.0535 0.0000 ( 15660 PWs)   bands (ev):

[...]

     the Fermi energy is     1.7216 ev

!    total energy              =   -1782.76930948 Ry
     Harris-Foulkes estimate   =   -1782.76931501 Ry
     estimated scf accuracy    <       0.00000183 Ry

     The total energy is the sum of the following terms:

     one-electron contribution =  -15516.39468777 Ry
     hartree contribution      =    7751.44128332 Ry
     xc contribution           =    -252.69461985 Ry
     ewald contribution        =    6235.02241034 Ry
     electric field correction =       0.00049719 Ry
     smearing contrib. (-TS)   =      -0.14419271 Ry

     convergence has been achieved in  29 iterations

 BEEF-vdW xc energy contributions
           1 :   -217.667007185820
           2 :    195.166370979877
           3 :   -158.037175556444
           4 :    117.982168810258
           5 :   -85.1615629993675
           6 :    64.3829127084133
           7 :   -54.4697041550463
           8 :    50.5207970678522
           9 :   -47.3727611336254
          10 :    42.2356365933318
          11 :   -35.3389179067562
          12 :    28.7290435160189
          13 :   -24.3496073869589
          14 :    22.6789184737295
          15 :   -22.6213193589084
          16 :    22.4569442233808
          17 :   -21.0502270473689
          18 :    18.4869978698648
          19 :   -15.8112126792975
          20 :    14.1537102939364
          21 :   -13.9134955417608
          22 :    14.5373827848179
          23 :   -14.9838915770124
          24 :    14.4774188425668
          25 :   -13.0077958743763
          26 :    11.2575672716138
          27 :   -10.0650580015176
          28 :    9.83472809979452
          29 :   -10.3020074477411
          30 :    10.7750860959104
          31 :   -22.6115419512992
          32 :   -16.2639609558233

     Forces acting on atoms (Ry/au):

     negative rho (up, down):  1.530E-02 0.000E+00
     atom    1 type  1   force =    -0.00059792   -0.00032622    0.00059576
     atom    2 type  1   force =     0.00059429   -0.00034320    0.00064312
     atom    3 type  1   force =    -0.00001152    0.00068017    0.00056489
     atom    4 type  1   force =     0.00001558   -0.00000720    0.00002087
     atom    5 type  1   force =     0.00001057   -0.00015621   -0.00336310
     atom    6 type  1   force =    -0.00000672    0.00000297    0.00055982
     atom    7 type  1   force =     0.00012257    0.00007476   -0.00336316
     atom    8 type  1   force =    -0.00011852    0.00007716   -0.00337449
     atom    9 type  1   force =    -0.00000243   -0.00000094   -0.03362132
     atom   10 type  1   force =     0.00000342   -0.02253669    0.02751784
     atom   11 type  1   force =    -0.01951997    0.01127783    0.02752296
     atom   12 type  1   force =     0.01951980    0.01127577    0.02752940
     atom   13 type  2   force =    -0.00001109   -0.00001764   -0.08576074
     atom   14 type  3   force =     0.00000193   -0.00000056    0.04452814

     Total force =     0.119436     Total SCF correction =     0.002924

     entering subroutine stress ...

     negative rho (up, down):  1.530E-02 0.000E+00
          total   stress  (Ry/bohr**3)                   (kbar)     P=  -18.15
  -0.00017892  -0.00000000   0.00000002        -26.32     -0.00      0.00
  -0.00000000  -0.00017888   0.00000000         -0.00    -26.31      0.00
   0.00000002   0.00000000  -0.00001224          0.00      0.00     -1.80

     BFGS Geometry Optimization

     number of scf cycles    =   1
     number of bfgs steps    =   0

     energy   new            =   -1782.7693094822 Ry

     new trust radius        =       0.0857607398 bohr
     new conv_thr            =       0.0000099958 Ry

ATOMIC_POSITIONS (crystal)
V1       0.166666667   0.166666667   0.409694847    0   0   0
V1       0.666666667   0.166666667   0.409694847    0   0   0
V1       0.166666667   0.666666667   0.409694847    0   0   0
V1       0.666666667   0.666666667   0.409694847    0   0   0
V1       0.833333333   0.333333333   0.500000000    0   0   0
V1       0.333333333   0.333333333   0.500000000    0   0   0
V1       0.833333333   0.833333333   0.500000000    0   0   0
V1       0.333333333   0.833333333   0.500000000    0   0   0
V1      -0.000000185  -0.000000106   0.589576239
V1       0.501275608  -0.002550545   0.590901744
V1      -0.002551339   0.501276346   0.590901855
V1       0.501275093   0.501276113   0.590901994
O1       0.333333245   0.333331337   0.646765912
H1       0.333333554   0.333333270   0.688511601

     Writing output data file calc.save
     Check: negative starting charge=   -0.011598
     NEW-OLD atomic charge density approx. for the potential

     Check: negative/imaginary core charge=   -0.000001    0.000000
     Check: negative starting charge=   -0.011336

[...]

     energy   old            =   -1782.7693094822 Ry
     energy   new            =   -1782.7736929990 Ry

     CASE: energy  _new < energy  _old

[...]

     iteration #  1     ecut=    36.75 Ry     beta=0.30
     Davidson diagonalization with overlap
     c_bands:  1 eigenvalues not converged
     ethr =  1.00E-06,  avg # of iterations = 14.3

[...]

     Total force =     0.024677     Total SCF correction =     0.000199

[...]

     number of scf cycles    =   9
     number of bfgs steps    =   8

     energy   old            =   -1782.8020614064 Ry
     energy   new            =   -1782.8046043976 Ry

     CASE: energy  _new < energy  _old

     new trust radius        =       0.0570750941 bohr
     new conv_thr            =       0.0000001000 Ry

ATOMIC_POSITIONS (crystal)
V1       0.166666667   0.166666667   0.409694847    0   0   0
V1       0.666666667   0.166666667   0.409694847    0   0   0
V1       0.166666667   0.666666667   0.409694847    0   0   0
V1       0.666666667   0.666666667   0.409694847    0   0   0
V1       0.833333333   0.333333333   0.500000000    0   0   0
V1       0.333333333   0.333333333   0.500000000    0   0   0
V1       0.833333333   0.833333333   0.500000000    0   0   0
V1       0.333333333   0.833333333   0.500000000    0   0   0
V1      -0.000002054  -0.000001512   0.572687800
V1       0.507899537  -0.015795829   0.594431094
V1      -0.015792672   0.507896868   0.594431321
V1       0.507898428   0.507899458   0.594431436
O1       0.333335695   0.333333740   0.646498702
H1       0.333334158   0.333331638   0.686376575

     Writing output data file calc.save
     Check: negative starting charge=   -0.009403
     NEW-OLD atomic charge density approx. for the potential

     Check: negative/imaginary core charge=   -0.000001    0.000000
     Check: negative starting charge=   -0.011434

[...]

     Self-consistent Calculation

[...]

     total energy              =   -1782.80609276 Ry
     Harris-Foulkes estimate   =   -1782.80609274 Ry
     estimated scf accuracy    <       0.00000014 Ry

     iteration # 20     ecut=    36.75 Ry     beta=0.30
     Davidson diagonalization with overlap
     ethr =  6.72E-11,  avg # of iterations =  1.0

[...]

     negative rho (up, down):  1.546E-02 0.000E+00

     Adding external electric field

     Computed dipole along edir(3) :
        Dipole                0.4445 Ry au,          1.1299 Debye
        Dipole field          0.0013 Ry au

        Potential amp.       -0.1208 Ry
        Total length         44.9721 bohr

     End of self-consistent calculation

[...]

          k = 0.0617-0.0713 0.0000 ( 15642 PWs)   bands (ev):

[...]

          k =-0.0926-0.0535 0.0000 ( 15660 PWs)   bands (ev):

   -62.5620 -62.5153 -62.4884 -62.4736 -62.4148 -62.3863 -62.3624 -62.3419
   -62.3407 -62.3203 -62.3046 -62.0762 -36.6104 -36.5701 -36.5247 -36.5049
   -36.4947 -36.4889 -36.4276 -36.4067 -36.3936 -36.3732 -36.3701 -36.3683
   -36.3508 -36.2790 -36.2728 -36.2309 -36.2266 -36.1958 -36.1794 -36.1672
   -36.1603 -36.1496 -36.1361 -36.1205 -36.0926 -36.0751 -36.0724 -36.0483
   -36.0462 -36.0100 -35.9956 -35.9243 -35.9171 -35.7591 -35.7133 -35.6092
   -20.0304  -8.0205  -4.4523  -4.2946  -2.5257  -2.4800  -1.2614  -1.1315
    -0.6174  -0.6097  -0.5332  -0.4926  -0.4809  -0.2519  -0.0007   0.0953
     0.2317   0.2614   0.4526   0.4670   0.5839   0.7512   0.8276   0.8437
     0.8893   0.9691   1.0785   1.1031   1.2342   1.2869   1.3942   1.4070
     1.4789   1.5419   1.7106   1.7796   1.9118   1.9351   2.0184   2.0430
     2.3098   2.3461   2.6142

     the Fermi energy is     1.7661 ev

!    total energy              =   -1782.80609271 Ry
     Harris-Foulkes estimate   =   -1782.80609550 Ry
     estimated scf accuracy    <       0.00000007 Ry

     The total energy is the sum of the following terms:

     one-electron contribution =  -15582.11470899 Ry
     hartree contribution      =    7784.63514681 Ry
     xc contribution           =    -252.82362019 Ry
     ewald contribution        =    6267.62589433 Ry
     electric field correction =       0.00059717 Ry
     smearing contrib. (-TS)   =      -0.12940182 Ry

     convergence has been achieved in  20 iterations

 BEEF-vdW xc energy contributions
           1 :   -217.801125369282
           2 :    195.327603155196
           3 :   -158.212142559653
           4 :    118.112174058017
           5 :   -85.1714248104431
           6 :    64.2245579076806
           7 :   -54.1565649815248
           8 :    50.1312349944567
           9 :   -47.0164705834096
          10 :    41.9967820651011
          11 :   -35.2252254053128
          12 :    28.6613360945306
          13 :   -24.2081648614032
          14 :    22.3824035379261
          15 :   -22.1853221513103
          16 :    21.9894373280909
          17 :   -20.6833828150665
          18 :    18.2892904476209
          19 :   -15.7404454889123
          20 :    14.0849428615963
          21 :   -13.7226191522801
          22 :    14.1828338734555
          23 :   -14.5333675391200
          24 :    14.0649211341906
          25 :   -12.7502175535352
          26 :    11.1833311106466
          27 :   -10.0984478574935
          28 :    9.84455945688524
          29 :   -10.1847924897215
          30 :    10.5215734709542
          31 :   -22.6193165800272
          32 :   -16.2722443608209

     Forces acting on atoms (Ry/au):

     negative rho (up, down):  1.546E-02 0.000E+00
     atom    1 type  1   force =    -0.00018438   -0.00010885    0.00006961
     atom    2 type  1   force =     0.00018779   -0.00010817    0.00006407
     atom    3 type  1   force =     0.00000200    0.00021393    0.00006801
     atom    4 type  1   force =    -0.00000412    0.00000217    0.00437415
     atom    5 type  1   force =    -0.00000051    0.02444862   -0.01516459
     atom    6 type  1   force =     0.00000072    0.00000124    0.04391980
     atom    7 type  1   force =    -0.02117327   -0.01222520   -0.01516877
     atom    8 type  1   force =     0.02117012   -0.01222401   -0.01516409
     atom    9 type  1   force =     0.00000348   -0.00000024    0.00135284
     atom   10 type  1   force =    -0.00000138    0.00081082   -0.00177526
     atom   11 type  1   force =     0.00069793   -0.00040399   -0.00177641
     atom   12 type  1   force =    -0.00069967   -0.00040453   -0.00177763
     atom   13 type  2   force =     0.00000084   -0.00000182   -0.00023853
     atom   14 type  3   force =     0.00000044    0.00000002    0.00121680

     Total force =     0.003847     Total SCF correction =     0.000836
     SCF correction compared to forces is large: reduce conv_thr to get better values

     entering subroutine stress ...

     negative rho (up, down):  1.546E-02 0.000E+00
          total   stress  (Ry/bohr**3)                   (kbar)     P=  -14.49
  -0.00014030   0.00000001  -0.00000000        -20.64      0.00     -0.00
   0.00000001  -0.00014029  -0.00000000          0.00    -20.64     -0.00
  -0.00000000  -0.00000000  -0.00001495         -0.00     -0.00     -2.20

     bfgs converged in  10 scf cycles and   9 bfgs steps
     (criteria: energy <  1.0E+00, force <  1.9E-03)

     End of BFGS Geometry Optimization

     Final energy   =   -1782.8060927060 Ry
Begin final coordinates

ATOMIC_POSITIONS (crystal)
V1       0.166666667   0.166666667   0.409694847    0   0   0
V1       0.666666667   0.166666667   0.409694847    0   0   0
V1       0.166666667   0.666666667   0.409694847    0   0   0
V1       0.666666667   0.666666667   0.409694847    0   0   0
V1       0.833333333   0.333333333   0.500000000    0   0   0
V1       0.333333333   0.333333333   0.500000000    0   0   0
V1       0.833333333   0.833333333   0.500000000    0   0   0
V1       0.333333333   0.833333333   0.500000000    0   0   0
V1      -0.000002054  -0.000001512   0.572687800
V1       0.507899537  -0.015795829   0.594431094
V1      -0.015792672   0.507896868   0.594431321
V1       0.507898428   0.507899458   0.594431436
O1       0.333335695   0.333333740   0.646498702
H1       0.333334158   0.333331638   0.686376575
End final coordinates

     Writing output data file calc.save

     General routines

     Parallel routines

   This run was terminated on:  11:28:38  24Apr2018

   JOB DONE.
Job  /afs/slac/g/suncat/bin/suncat-tsmpirun -x LD_LIBRARY_PATH -wdir /scratch/qe726318_YiuL0 pw.x -npool 4 -in pw.inp

TID   HOST_NAME   COMMAND_LINE            STATUS            TERMINATION_TIME
00000 suncat0082 pw.x -npool 4 -i  Done                     04/24/2018 11:28:38
00001 suncat0082 pw.x -npool 4 -i  Done                     04/24/2018 11:28:38
00002 suncat0082 pw.x -npool 4 -i  Done                     04/24/2018 11:28:38
00003 suncat0082 pw.x -npool 4 -i  Done                     04/24/2018 11:28:38
00004 suncat0082 pw.x -npool 4 -i  Done                     04/24/2018 11:28:38
00005 suncat0082 pw.x -npool 4 -i  Done                     04/24/2018 11:28:38
00006 suncat0082 pw.x -npool 4 -i  Done                     04/24/2018 11:28:38
00007 suncat0082 pw.x -npool 4 -i  Done                     04/24/2018 11:28:38
00008 suncat0276 pw.x -npool 4 -i  Done                     04/24/2018 11:28:38
00009 suncat0276 pw.x -npool 4 -i  Done                     04/24/2018 11:28:38
00010 suncat0276 pw.x -npool 4 -i  Done                     04/24/2018 11:28:38
00011 suncat0276 pw.x -npool 4 -i  Done                     04/24/2018 11:28:38
00012 suncat0276 pw.x -npool 4 -i  Done                     04/24/2018 11:28:38
00013 suncat0276 pw.x -npool 4 -i  Done                     04/24/2018 11:28:38
00014 suncat0276 pw.x -npool 4 -i  Done                     04/24/2018 11:28:38
00015 suncat0276 pw.x -npool 4 -i  Done                     04/24/2018 11:28:38
00016 suncat0213 pw.x -npool 4 -i  Done                     04/24/2018 11:28:38
00017 suncat0213 pw.x -npool 4 -i  Done                     04/24/2018 11:28:38
00018 suncat0213 pw.x -npool 4 -i  Done                     04/24/2018 11:28:38
00019 suncat0213 pw.x -npool 4 -i  Done                     04/24/2018 11:28:38
00020 suncat0213 pw.x -npool 4 -i  Done                     04/24/2018 11:28:38
00021 suncat0213 pw.x -npool 4 -i  Done                     04/24/2018 11:28:38
00022 suncat0213 pw.x -npool 4 -i  Done                     04/24/2018 11:28:38
00023 suncat0213 pw.x -npool 4 -i  Done                     04/24/2018 11:28:38
00024 suncat0207 pw.x -npool 4 -i  Done                     04/24/2018 11:28:38
00025 suncat0207 pw.x -npool 4 -i  Done                     04/24/2018 11:28:38
00026 suncat0207 pw.x -npool 4 -i  Done                     04/24/2018 11:28:38
00027 suncat0207 pw.x -npool 4 -i  Done                     04/24/2018 11:28:38
00028 suncat0207 pw.x -npool 4 -i  Done                     04/24/2018 11:28:38
00029 suncat0207 pw.x -npool 4 -i  Done                     04/24/2018 11:28:38
00030 suncat0207 pw.x -npool 4 -i  Done                     04/24/2018 11:28:38
00031 suncat0207 pw.x -npool 4 -i  Done                     04/24/2018 11:28:38