     Program PWSCF v.5.1rc2 (svn rev. 11289) starts on  2May2018 at 23:56:39

     Current dimensions of program PWSCF are:
     Max number of different atomic species (ntypx) = 10
     Max number of k-points (npk) =  40000
     Max angular momentum in pseudopotentials (lmaxx) =  3
     Presently stress not available with electric field

     IMPORTANT: XC functional enforced from input :
     Exchange-correlation      = BEEF-VDW ( 1  4 27 13 2)
     Any further DFT definition will be discarded
     Please, verify this is what you really want

     Subspace diagonalization in iterative solution of the eigenvalue problem:
     a serial algorithm will be used

     bravais-lattice index     =            0
     lattice parameter (alat)  =       1.8897  a.u.
     unit-cell volume          =    7725.1200 (a.u.)^3
     number of atoms/cell      =           13
     number of atomic types    =            2
     number of electrons       =       137.00
     number of Kohn-Sham states=           78
     kinetic-energy cutoff     =      36.7493  Ry
     charge density cutoff     =     367.4932  Ry
     convergence threshold     =      1.0E-05
     mixing beta               =       0.3000
     number of iterations used =           10  plain     mixing
     Exchange-correlation      = BEEF-VDW ( 1  4 27 13 2)
     nstep                     =           50

     celldm(1)=   1.889726  celldm(2)=   0.000000  celldm(3)=   0.000000
     celldm(4)=   0.000000  celldm(5)=   0.000000  celldm(6)=   0.000000

     crystal axes: (cart. coord. in units of alat)
               a(1) = (   7.152277   0.000000   0.000000 )
               a(2) = (   3.576139   6.194054   0.000000 )
               a(3) = (   0.000000   0.000000  25.839810 )

     reciprocal axes: (cart. coord. in units 2 pi/alat)
               b(1) = (  0.139816 -0.080723  0.000000 )
               b(2) = (  0.000000  0.161445  0.000000 )
               b(3) = (  0.000000  0.000000  0.038700 )

     PseudoPot. # 1 for Y  read from file:
     /u/if/mamunm/psp/gbrv1.5pbe/Y.UPF
     MD5 check sum: d034151ed7554c50b6e82763ed42c788
     Pseudo is Ultrasoft + core correction, Zval = 11.0
     Generated by new atomic code, or converted to UPF format
     Using radial grid of  885 points,  6 beta functions with:
                l(1) =   0
                l(2) =   0
                l(3) =   1
                l(4) =   1
                l(5) =   2
                l(6) =   2
     Q(r) pseudized with  8 coefficients,  rinner =    1.200   1.200   1.200
                                                       1.200   1.200

     PseudoPot. # 2 for N  read from file:
     /u/if/mamunm/psp/gbrv1.5pbe/N.UPF
     MD5 check sum: 95339753478d7afb44899504a8723017
     Pseudo is Ultrasoft + core correction, Zval =  5.0
     Generated by new atomic code, or converted to UPF format
     Using radial grid of  729 points,  4 beta functions with:
                l(1) =   0
                l(2) =   0
                l(3) =   1
                l(4) =   1
     Q(r) pseudized with  8 coefficients,  rinner =    0.900   0.900   0.900

     vdW kernel table read from file vdW_kernel_table
     MD5 check sum: 095c7af220d748ca6e76c0b4c6cfb241

     atomic species   valence    mass     pseudopotential
        Y1            11.00    88.90584     Y ( 1.00)
        N1             5.00    14.00700     N ( 1.00)

     No symmetry found

   Cartesian axes

     site n.     atom                  positions (alat units)
         1           Y1  tau(   1) = (   1.7880693   1.0323423  10.0000000  )
         2           Y1  tau(   2) = (   5.3642080   1.0323423  10.0000000  )
         3           Y1  tau(   3) = (   3.5761386   4.1293692  10.0000000  )
         4           Y1  tau(   4) = (   7.1522773   4.1293692  10.0000000  )
         5           Y1  tau(   5) = (   7.1522773   2.0646846  12.9199050  )
         6           Y1  tau(   6) = (   3.5761386   2.0646846  12.9199050  )
         7           Y1  tau(   7) = (   8.9403466   5.1617115  12.9199050  )
         8           Y1  tau(   8) = (   5.3642080   5.1617115  12.9199050  )
         9           Y1  tau(   9) = (   0.0000000   0.0000000  15.8398100  )
        10           Y1  tau(  10) = (   3.5761386   0.0000000  15.8398100  )
        11           Y1  tau(  11) = (   1.7880693   3.0970269  15.8398100  )
        12           Y1  tau(  12) = (   5.3642080   3.0970269  15.8398100  )
        13           N1  tau(  13) = (   0.0000000   0.0000000  18.0583100  )

     number of k points=    20  Fermi-Dirac smearing, width (Ry)=  0.0110
                       cart. coord. in units 2pi/alat
        k(    1) = (   0.0000000   0.0000000   0.0000000), wk =   0.0555556
        k(    2) = (   0.0000000   0.0269075   0.0000000), wk =   0.1111111
        k(    3) = (   0.0000000   0.0538151   0.0000000), wk =   0.1111111
        k(    4) = (   0.0000000  -0.0807226   0.0000000), wk =   0.0555556
        k(    5) = (   0.0233026  -0.0134538   0.0000000), wk =   0.1111111
        k(    6) = (   0.0233026   0.0134538   0.0000000), wk =   0.1111111
        k(    7) = (   0.0233026   0.0403613   0.0000000), wk =   0.1111111
        k(    8) = (   0.0233026  -0.0941763   0.0000000), wk =   0.1111111
        k(    9) = (   0.0233026  -0.0672688   0.0000000), wk =   0.1111111
        k(   10) = (   0.0233026  -0.0403613   0.0000000), wk =   0.1111111
        k(   11) = (   0.0466052  -0.0269075   0.0000000), wk =   0.1111111
        k(   12) = (   0.0466052   0.0000000   0.0000000), wk =   0.1111111
        k(   13) = (   0.0466052   0.0269075   0.0000000), wk =   0.1111111
        k(   14) = (   0.0466052  -0.1076301   0.0000000), wk =   0.1111111
        k(   15) = (   0.0466052  -0.0807226   0.0000000), wk =   0.1111111
        k(   16) = (   0.0466052  -0.0538151   0.0000000), wk =   0.1111111
        k(   17) = (  -0.0699078   0.0403613   0.0000000), wk =   0.0555556
        k(   18) = (  -0.0699078   0.0672688   0.0000000), wk =   0.1111111
        k(   19) = (  -0.0699078   0.0941763   0.0000000), wk =   0.1111111
        k(   20) = (  -0.0699078  -0.0403613   0.0000000), wk =   0.0555556

     Largest allocated arrays     est. size (Mb)     dimensions
     Largest temporary arrays     est. size (Mb)     dimensions

     Initial potential from superposition of free atoms
     Check: negative starting charge=   -0.000563

     starting charge  136.94636, renormalised to  137.00000

     negative rho (up, down):  5.627E-04 0.000E+00

     *
     * You are using vdW-DF for exchange-correlation in this calculation.
     * Please cite the following three references that made this development
     * possible:
     *
     *   M. Dion, H. Rydberg, E. Schroder, D. C. Langreth, and
     *   B. I. Lundqvist, Phys. Rev. Lett. 92, 246401 (2004).
     *
     *   T. Thonhauser, V. R. Cooper, S. Li, A. Puzder, P. Hyldgaard, and
     *   D. C. Langreth, Phys. Rev. B 76, 125112 (2007).
     *
     *   G. Roman-Perez and J. M. Soler, Phys. Rev. Lett. 103, 096102 (2009).
     *
     *
     * If you are using vdW-DF2, please also cite:
     *
     *   K. Lee, E. D. Murray, L. Kong, B. I. Lundqvist, and
     *   D. C. Langreth, Phys. Rev. B 82, 081101(R) (2010).
     *
     *
     * If you are calculating the stress with vdW-DF, please also cite:
     *
     *   R. Sabatini, E. Kucukbenli, B. Kolb, T. Thonhauser, and
     *   S. de Gironcoli, J. Phys.: Condens. Matter 24, 424209 (2012).
     *

     Carrying out vdW-DF run using the following parameters:

     Nqs =      20    Nr_points =    1024   r_max =   100.000
     q_mesh =
               0.00001000     0.04494208     0.09755937     0.15916263
               0.23128650     0.31572767     0.41458969     0.53033537
               0.66584808     0.82450364     1.01025438     1.22772762
               1.48234092     1.78043706     2.12944203     2.53805004
               3.01644009     3.57652955     4.23227104     5.00000000

     Gradients computed in reciprocal space

     Adding external electric field

     Computed dipole along edir(3) :
        Dipole               -0.0189 Ry au,         -0.0481 Debye
        Dipole field         -0.0000 Ry au

        Potential amp.        0.0029 Ry
        Total length         47.6094 bohr

     Starting wfc are  160 randomized atomic wfcs

     Self-consistent Calculation

     iteration #  1     ecut=    36.75 Ry     beta=0.30
     Davidson diagonalization with overlap
     ethr =  1.00E-02,  avg # of iterations =  2.0

[...]

     total energy              =   -1141.70984181 Ry
     Harris-Foulkes estimate   =   -1144.99625819 Ry
     estimated scf accuracy    <       7.15722779 Ry

[...]

     End of self-consistent calculation

          k = 0.0000 0.0000 0.0000 ( 28997 PWs)   bands (ev):

   -43.1027 -43.0708 -43.0706 -42.9747 -42.9354 -42.9350 -42.9208 -42.4441
   -42.4066 -42.4066 -42.3761 -41.6779 -23.1750 -23.1501 -23.0970 -23.0970
   -23.0931 -23.0930 -23.0795 -23.0748 -23.0746 -23.0039 -22.9384 -22.9380
   -22.9223 -22.8852 -22.7982 -22.7981 -22.7586 -22.7519 -22.7517 -22.6548
   -22.6548 -22.5890 -22.5525 -22.5525 -22.3692 -22.3368 -22.3368 -22.3090
   -22.2606 -22.2595 -22.2595 -22.1580 -22.1580 -21.7402 -21.7402 -21.5456
   -10.7305  -3.8849  -2.9248  -1.9054  -1.2361  -1.2300  -1.2300  -1.1157
    -1.1102  -1.1102  -0.8121  -0.7725  -0.7725  -0.3700  -0.3700  -0.3693
    -0.2099  -0.2098   0.0543   0.1587   0.3807   0.3807   0.5623   0.9832
     1.0409   1.0828   1.0828   1.2891   1.4630   1.5402

[...]

          k =-0.0699 0.0404 0.0000 ( 29048 PWs)   bands (ev):

[...]

     the Fermi energy is     0.3753 ev

!    total energy              =   -1144.41764453 Ry
     Harris-Foulkes estimate   =   -1144.41767242 Ry
     estimated scf accuracy    <       0.00000609 Ry

     The total energy is the sum of the following terms:

     one-electron contribution =   -5479.10840736 Ry
     hartree contribution      =    2731.49196238 Ry
     xc contribution           =    -344.12838012 Ry
     ewald contribution        =    1947.45463854 Ry
     electric field correction =       0.00123838 Ry
     smearing contrib. (-TS)   =      -0.12869635 Ry

     convergence has been achieved in  19 iterations

 BEEF-vdW xc energy contributions
           1 :   -300.058232053078
           2 :    269.335954678897
           3 :   -216.511779304097
           4 :    154.614540136296
           5 :   -95.6956807665370
           6 :    47.2925491948409
           7 :   -11.9481270777476
           8 :   -11.0276099943543
           9 :    23.3322082029649
          10 :   -26.4264632266736
          11 :    21.6292358718272
          12 :   -10.9304423699979
          13 :   -2.48561028176607
          14 :    14.6641113201414
          15 :   -22.1326358673638
          16 :    23.1936107185768
          17 :   -18.4123928629752
          18 :    10.0314384829122
          19 :  -0.777428983536083
          20 :   -7.17809448671801
          21 :    12.6244380429080
          22 :   -15.1421164993527
          23 :    14.7587910988547
          24 :   -11.7924610947344
          25 :    6.93036036046323
          26 :   -1.31008535980806
          27 :   -3.65544034397476
          28 :    6.73309489989697
          29 :   -7.36167598055687
          30 :    5.85748096484389
          31 :   -28.8016361326852
          32 :   -19.6787168114728

     Forces acting on atoms (Ry/au):

     negative rho (up, down):  4.836E-04 0.000E+00
     atom    1 type  1   force =    -0.00068692   -0.00037049    0.00476892
     atom    2 type  1   force =     0.00070303   -0.00044871    0.00483608
     atom    3 type  1   force =    -0.00006249    0.00080971    0.00481477
     atom    4 type  1   force =     0.00007748    0.00001102    0.00498140
     atom    5 type  1   force =    -0.00004897    0.00566502   -0.00014685
     atom    6 type  1   force =     0.00004639    0.00009570    0.00506870
     atom    7 type  1   force =    -0.00480650   -0.00289180   -0.00023152
     atom    8 type  1   force =     0.00479078   -0.00291065   -0.00019779
     atom    9 type  1   force =    -0.00008790    0.00002195    0.07189679
     atom   10 type  1   force =     0.00005947   -0.00066666    0.00755655
     atom   11 type  1   force =    -0.00059040    0.00038224    0.00753207
     atom   12 type  1   force =     0.00059846    0.00030162    0.00755125
     atom   13 type  2   force =     0.00000759    0.00000106   -0.11843035

     Total force =     0.139166     Total SCF correction =     0.001976

     entering subroutine stress ...

     negative rho (up, down):  4.836E-04 0.000E+00
          total   stress  (Ry/bohr**3)                   (kbar)     P=   -6.46
  -0.00001659  -0.00000001  -0.00000001         -2.44     -0.00     -0.00
  -0.00000001  -0.00001659   0.00000000         -0.00     -2.44      0.00
  -0.00000001   0.00000000  -0.00009862         -0.00      0.00    -14.51

     BFGS Geometry Optimization

     number of scf cycles    =   1
     number of bfgs steps    =   0

     energy   new            =   -1144.4176445344 Ry

     new trust radius        =       0.1184303474 bohr
     new conv_thr            =       0.0000099958 Ry

ATOMIC_POSITIONS (crystal)
Y1       0.166666667   0.166666667   0.386999750    0   0   0
Y1       0.666666667   0.166666667   0.386999750    0   0   0
Y1       0.166666667   0.666666667   0.386999750    0   0   0
Y1       0.666666667   0.666666667   0.386999750    0   0   0
Y1       0.833333333   0.333333333   0.500000000    0   0   0
Y1       0.333333333   0.333333333   0.500000000    0   0   0
Y1       0.833333333   0.833333333   0.500000000    0   0   0
Y1       0.333333333   0.833333333   0.500000000    0   0   0
Y1      -0.000007441   0.000001875   0.614472634
Y1       0.500032877  -0.000056955   0.613155001
Y1      -0.000060010   0.500032656   0.613154500
Y1       0.500031394   0.500025769   0.613154893
N1       0.000000517   0.000000090   0.696430792

     Writing output data file calc.save
     Check: negative starting charge=   -0.000563
     NEW-OLD atomic charge density approx. for the potential
     Check: negative starting charge=   -0.000567

[...]

     energy   old            =   -1144.4176445344 Ry
     energy   new            =   -1144.4352133079 Ry

     CASE: energy  _new < energy  _old

[...]

     WARNING: bfgs curvature condition failed, Theta= 0.837
     new trust radius        =       0.0430486613 bohr
     new conv_thr            =       0.0000001000 Ry

[...]

     number of scf cycles    =  11
     number of bfgs steps    =  10

     energy   old            =   -1144.4736027408 Ry
     energy   new            =   -1144.4749971287 Ry

     CASE: energy  _new < energy  _old

     new trust radius        =       0.0325315621 bohr
     new conv_thr            =       0.0000001000 Ry

ATOMIC_POSITIONS (crystal)
Y1       0.166666667   0.166666667   0.386999750    0   0   0
Y1       0.666666667   0.166666667   0.386999750    0   0   0
Y1       0.166666667   0.666666667   0.386999750    0   0   0
Y1       0.666666667   0.666666667   0.386999750    0   0   0
Y1       0.833333333   0.333333333   0.500000000    0   0   0
Y1       0.333333333   0.333333333   0.500000000    0   0   0
Y1       0.833333333   0.833333333   0.500000000    0   0   0
Y1       0.333333333   0.833333333   0.500000000    0   0   0
Y1      -0.000002765   0.000003742   0.600422398
Y1       0.501136015  -0.002271115   0.617184231
Y1      -0.002274409   0.501141980   0.617183873
Y1       0.501133701   0.501139087   0.617187241
N1      -0.000002760  -0.000004193   0.675483286

     Writing output data file calc.save
     Check: negative starting charge=   -0.000591
     NEW-OLD atomic charge density approx. for the potential
     Check: negative starting charge=   -0.000592

[...]

     Self-consistent Calculation

[...]

     total energy              =   -1144.47504985 Ry
     Harris-Foulkes estimate   =   -1144.47504985 Ry
     estimated scf accuracy    <       0.00000011 Ry

     iteration # 13     ecut=    36.75 Ry     beta=0.30
     Davidson diagonalization with overlap
     ethr =  7.91E-11,  avg # of iterations =  2.0

[...]

     negative rho (up, down):  4.825E-04 0.000E+00

     Adding external electric field

     Computed dipole along edir(3) :
        Dipole               -0.4066 Ry au,         -1.0334 Debye
        Dipole field         -0.0007 Ry au

        Potential amp.        0.0630 Ry
        Total length         47.6094 bohr

     End of self-consistent calculation

[...]

          k = 0.0466-0.0538 0.0000 ( 29098 PWs)   bands (ev):

[...]

          k =-0.0699-0.0404 0.0000 ( 29048 PWs)   bands (ev):

   -42.8772 -42.8666 -42.8561 -42.6015 -42.5966 -42.5801 -42.5708 -42.1223
   -42.0846 -42.0713 -42.0628 -40.6892 -22.8992 -22.8821 -22.8704 -22.8653
   -22.7849 -22.7640 -22.7456 -22.6998 -22.6479 -22.6459 -22.6183 -22.6100
   -22.5805 -22.5673 -22.5661 -22.5218 -22.5158 -22.4889 -22.4823 -22.3527
   -22.3504 -22.1927 -22.1690 -22.0812 -22.0512 -22.0415 -22.0354 -22.0248
   -22.0116 -21.9924 -21.9851 -21.8871 -21.8839 -21.0604 -20.8043 -20.7930
   -10.3693  -2.3494  -2.3021  -1.5883  -1.3592  -0.8644  -0.7228  -0.7131
    -0.6200  -0.4575  -0.2181  -0.2025  -0.1832   0.0168   0.4632   0.5117
     0.5150   0.5480   0.6119   0.6964   0.7175   0.7816   0.8543   0.8847
     0.9589   1.0354   1.0906   1.2179   1.2635   1.2693

     the Fermi energy is     0.7230 ev

!    total energy              =   -1144.47504986 Ry
     Harris-Foulkes estimate   =   -1144.47505085 Ry
     estimated scf accuracy    <       0.00000002 Ry

     The total energy is the sum of the following terms:

     one-electron contribution =   -5549.39937533 Ry
     hartree contribution      =    2768.20671383 Ry
     xc contribution           =    -344.33343380 Ry
     ewald contribution        =    1981.17419173 Ry
     electric field correction =       0.00026888 Ry
     smearing contrib. (-TS)   =      -0.12341518 Ry

     convergence has been achieved in  13 iterations

 BEEF-vdW xc energy contributions
           1 :   -300.259778105576
           2 :    269.580745954288
           3 :   -216.799400726124
           4 :    154.902808094231
           5 :   -95.9241642311797
           6 :    47.4100733844275
           7 :   -11.9413608152166
           8 :   -11.1259831891249
           9 :    23.4660981785834
          10 :   -26.5501798467417
          11 :    21.7264921643990
          12 :   -11.0109387944621
          13 :   -2.40364628514868
          14 :    14.5738698060862
          15 :   -22.0483960023213
          16 :    23.1401216006140
          17 :   -18.4026127846687
          18 :    10.0548187382829
          19 :  -0.807916856115526
          20 :   -7.16505220857618
          21 :    12.6394912758029
          22 :   -15.1792798750781
          23 :    14.8016791451391
          24 :   -11.8258399630269
          25 :    6.94985170757269
          26 :   -1.32363419733144
          27 :   -3.63604608161950
          28 :    6.70417609164701
          29 :   -7.33136786933596
          30 :    5.83825099391493
          31 :   -28.8154599086436
          32 :   -19.7013065357207

     Forces acting on atoms (Ry/au):

     negative rho (up, down):  4.825E-04 0.000E+00
     atom    1 type  1   force =    -0.00031143   -0.00017971    0.00590687
     atom    2 type  1   force =     0.00031162   -0.00017954    0.00590711
     atom    3 type  1   force =     0.00000014    0.00035948    0.00590674
     atom    4 type  1   force =    -0.00000020   -0.00000031    0.00760834
     atom    5 type  1   force =    -0.00000021    0.01477570   -0.01139354
     atom    6 type  1   force =     0.00000039    0.00000045    0.01441315
     atom    7 type  1   force =    -0.01279587   -0.00738722   -0.01139587
     atom    8 type  1   force =     0.01279556   -0.00738787   -0.01139268
     atom    9 type  1   force =     0.00000142    0.00000040   -0.00042030
     atom   10 type  1   force =     0.00000086    0.00045287   -0.00147215
     atom   11 type  1   force =     0.00039128   -0.00022527   -0.00147244
     atom   12 type  1   force =    -0.00039072   -0.00022515   -0.00147607
     atom   13 type  2   force =    -0.00000286   -0.00000383   -0.00071916

     Total force =     0.002796     Total SCF correction =     0.000089

     entering subroutine stress ...

     negative rho (up, down):  4.825E-04 0.000E+00
          total   stress  (Ry/bohr**3)                   (kbar)     P=   -3.83
  -0.00002669   0.00000000  -0.00000000         -3.93      0.00     -0.00
   0.00000000  -0.00002669  -0.00000000          0.00     -3.93     -0.00
  -0.00000000  -0.00000000  -0.00002466         -0.00     -0.00     -3.63

     bfgs converged in  12 scf cycles and  11 bfgs steps
     (criteria: energy <  1.0E+00, force <  1.9E-03)

     End of BFGS Geometry Optimization

     Final energy   =   -1144.4750498635 Ry
Begin final coordinates

ATOMIC_POSITIONS (crystal)
Y1       0.166666667   0.166666667   0.386999750    0   0   0
Y1       0.666666667   0.166666667   0.386999750    0   0   0
Y1       0.166666667   0.666666667   0.386999750    0   0   0
Y1       0.666666667   0.666666667   0.386999750    0   0   0
Y1       0.833333333   0.333333333   0.500000000    0   0   0
Y1       0.333333333   0.333333333   0.500000000    0   0   0
Y1       0.833333333   0.833333333   0.500000000    0   0   0
Y1       0.333333333   0.833333333   0.500000000    0   0   0
Y1      -0.000002765   0.000003742   0.600422398
Y1       0.501136015  -0.002271115   0.617184231
Y1      -0.002274409   0.501141980   0.617183873
Y1       0.501133701   0.501139087   0.617187241
N1      -0.000002760  -0.000004193   0.675483286
End final coordinates

     Writing output data file calc.save

     General routines

     Parallel routines

   This run was terminated on:   2:21:31   3May2018

   JOB DONE.
Job  /afs/slac/g/suncat/bin/suncat-tsmpirun -x LD_LIBRARY_PATH -wdir /scratch/qe559481_ZiMRK pw.x -npool 4 -in pw.inp

TID   HOST_NAME   COMMAND_LINE            STATUS            TERMINATION_TIME
00000 suncat0065 pw.x -npool 4 -i  Done                     05/03/2018 02:21:31
00001 suncat0065 pw.x -npool 4 -i  Done                     05/03/2018 02:21:31
00002 suncat0065 pw.x -npool 4 -i  Done                     05/03/2018 02:21:31
00003 suncat0065 pw.x -npool 4 -i  Done                     05/03/2018 02:21:31
00004 suncat0065 pw.x -npool 4 -i  Done                     05/03/2018 02:21:31
00005 suncat0065 pw.x -npool 4 -i  Done                     05/03/2018 02:21:31
00006 suncat0065 pw.x -npool 4 -i  Done                     05/03/2018 02:21:31
00007 suncat0065 pw.x -npool 4 -i  Done                     05/03/2018 02:21:31
00008 suncat0024 pw.x -npool 4 -i  Done                     05/03/2018 02:21:31
00009 suncat0024 pw.x -npool 4 -i  Done                     05/03/2018 02:21:31
00010 suncat0024 pw.x -npool 4 -i  Done                     05/03/2018 02:21:31
00011 suncat0024 pw.x -npool 4 -i  Done                     05/03/2018 02:21:31
00012 suncat0024 pw.x -npool 4 -i  Done                     05/03/2018 02:21:31
00013 suncat0024 pw.x -npool 4 -i  Done                     05/03/2018 02:21:31
00014 suncat0024 pw.x -npool 4 -i  Done                     05/03/2018 02:21:31
00015 suncat0024 pw.x -npool 4 -i  Done                     05/03/2018 02:21:31
00016 suncat0204 pw.x -npool 4 -i  Done                     05/03/2018 02:21:31
00017 suncat0204 pw.x -npool 4 -i  Done                     05/03/2018 02:21:31
00018 suncat0204 pw.x -npool 4 -i  Done                     05/03/2018 02:21:31
00019 suncat0204 pw.x -npool 4 -i  Done                     05/03/2018 02:21:31
00020 suncat0204 pw.x -npool 4 -i  Done                     05/03/2018 02:21:31
00021 suncat0204 pw.x -npool 4 -i  Done                     05/03/2018 02:21:31
00022 suncat0204 pw.x -npool 4 -i  Done                     05/03/2018 02:21:31
00023 suncat0204 pw.x -npool 4 -i  Done                     05/03/2018 02:21:31
00024 suncat0203 pw.x -npool 4 -i  Done                     05/03/2018 02:21:31
00025 suncat0203 pw.x -npool 4 -i  Done                     05/03/2018 02:21:31
00026 suncat0203 pw.x -npool 4 -i  Done                     05/03/2018 02:21:31
00027 suncat0203 pw.x -npool 4 -i  Done                     05/03/2018 02:21:31
00028 suncat0203 pw.x -npool 4 -i  Done                     05/03/2018 02:21:31
00029 suncat0203 pw.x -npool 4 -i  Done                     05/03/2018 02:21:31
00030 suncat0203 pw.x -npool 4 -i  Done                     05/03/2018 02:21:31
00031 suncat0203 pw.x -npool 4 -i  Done                     05/03/2018 02:21:31