     Program PWSCF v.5.1rc2 (svn rev. 11289) starts on  3May2018 at  8:37:44

     Current dimensions of program PWSCF are:
     Max number of different atomic species (ntypx) = 10
     Max number of k-points (npk) =  40000
     Max angular momentum in pseudopotentials (lmaxx) =  3
     Presently stress not available with electric field

     IMPORTANT: XC functional enforced from input :
     Exchange-correlation      = BEEF-VDW ( 1  4 27 13 2)
     Any further DFT definition will be discarded
     Please, verify this is what you really want

     Subspace diagonalization in iterative solution of the eigenvalue problem:
     a serial algorithm will be used

     bravais-lattice index     =            0
     lattice parameter (alat)  =       1.8897  a.u.
     unit-cell volume          =    4569.9960 (a.u.)^3
     number of atoms/cell      =           13
     number of atomic types    =            2
     number of electrons       =       198.00
     number of Kohn-Sham states=          109
     kinetic-energy cutoff     =      36.7493  Ry
     charge density cutoff     =     367.4932  Ry
     convergence threshold     =      1.0E-05
     mixing beta               =       0.3000
     number of iterations used =           10  plain     mixing
     Exchange-correlation      = BEEF-VDW ( 1  4 27 13 2)
     nstep                     =           50

     celldm(1)=   1.889726  celldm(2)=   0.000000  celldm(3)=   0.000000
     celldm(4)=   0.000000  celldm(5)=   0.000000  celldm(6)=   0.000000

     crystal axes: (cart. coord. in units of alat)
               a(1) = (   5.637663   0.000000   0.000000 )
               a(2) = (   2.818831   4.882359   0.000000 )
               a(3) = (   0.000000   0.000000  24.603132 )

     reciprocal axes: (cart. coord. in units 2 pi/alat)
               b(1) = (  0.177378 -0.102410  0.000000 )
               b(2) = (  0.000000  0.204819  0.000000 )
               b(3) = (  0.000000  0.000000  0.040645 )

     PseudoPot. # 1 for Pd read from file:
     /u/if/mamunm/psp/gbrv1.5pbe/Pd.UPF
     MD5 check sum: 2d733d2bc2cbfd217af676df1668a4bc
     Pseudo is Ultrasoft + core correction, Zval = 16.0
     Generated by new atomic code, or converted to UPF format
     Using radial grid of  887 points,  6 beta functions with:
                l(1) =   0
                l(2) =   0
                l(3) =   1
                l(4) =   1
                l(5) =   2
                l(6) =   2
     Q(r) pseudized with  8 coefficients,  rinner =    1.130   1.130   1.130
                                                       1.130   1.130

     PseudoPot. # 2 for O  read from file:
     /u/if/mamunm/psp/gbrv1.5pbe/O.UPF
     MD5 check sum: 734c27235a0248c51dbae37a1fbe46ec
     Pseudo is Ultrasoft + core correction, Zval =  6.0
     Generated by new atomic code, or converted to UPF format
     Using radial grid of  737 points,  5 beta functions with:
                l(1) =   0
                l(2) =   0
                l(3) =   1
                l(4) =   1
                l(5) =   2
     Q(r) pseudized with  8 coefficients,  rinner =    0.900   0.900   0.900
                                                       0.900   0.900

     vdW kernel table read from file vdW_kernel_table
     MD5 check sum: 095c7af220d748ca6e76c0b4c6cfb241

     atomic species   valence    mass     pseudopotential
        Pd1           16.00   106.42000     Pd( 1.00)
        O1             6.00    15.99900     O ( 1.00)

     No symmetry found

   Cartesian axes

     site n.     atom                  positions (alat units)
         1           Pd1 tau(   1) = (   1.4094157   0.8137265  10.0000000  )
         2           Pd1 tau(   2) = (   4.2282471   0.8137265  10.0000000  )
         3           Pd1 tau(   3) = (   2.8188314   3.2549061  10.0000000  )
         4           Pd1 tau(   4) = (   5.6376627   3.2549061  10.0000000  )
         5           Pd1 tau(   5) = (   5.6376627   1.6274531  12.3015662  )
         6           Pd1 tau(   6) = (   2.8188314   1.6274531  12.3015662  )
         7           Pd1 tau(   7) = (   7.0470784   4.0686326  12.3015662  )
         8           Pd1 tau(   8) = (   4.2282471   4.0686326  12.3015662  )
         9           Pd1 tau(   9) = (   0.0000000   0.0000000  14.6031324  )
        10           Pd1 tau(  10) = (   2.8188314   0.0000000  14.6031324  )
        11           Pd1 tau(  11) = (   1.4094157   2.4411796  14.6031324  )
        12           Pd1 tau(  12) = (   4.2282471   2.4411796  14.6031324  )
        13           O1  tau(  13) = (   0.0000000   0.0000000  16.3456324  )

     number of k points=    20  Fermi-Dirac smearing, width (Ry)=  0.0110
                       cart. coord. in units 2pi/alat
        k(    1) = (   0.0000000   0.0000000   0.0000000), wk =   0.0555556
        k(    2) = (   0.0000000   0.0341365   0.0000000), wk =   0.1111111
        k(    3) = (   0.0000000   0.0682730   0.0000000), wk =   0.1111111
        k(    4) = (   0.0000000  -0.1024095   0.0000000), wk =   0.0555556
        k(    5) = (   0.0295631  -0.0170683   0.0000000), wk =   0.1111111
        k(    6) = (   0.0295631   0.0170683   0.0000000), wk =   0.1111111
        k(    7) = (   0.0295631   0.0512048   0.0000000), wk =   0.1111111
        k(    8) = (   0.0295631  -0.1194778   0.0000000), wk =   0.1111111
        k(    9) = (   0.0295631  -0.0853413   0.0000000), wk =   0.1111111
        k(   10) = (   0.0295631  -0.0512048   0.0000000), wk =   0.1111111
        k(   11) = (   0.0591262  -0.0341365   0.0000000), wk =   0.1111111
        k(   12) = (   0.0591262  -0.0000000   0.0000000), wk =   0.1111111
        k(   13) = (   0.0591262   0.0341365   0.0000000), wk =   0.1111111
        k(   14) = (   0.0591262  -0.1365460   0.0000000), wk =   0.1111111
        k(   15) = (   0.0591262  -0.1024095   0.0000000), wk =   0.1111111
        k(   16) = (   0.0591262  -0.0682730   0.0000000), wk =   0.1111111
        k(   17) = (  -0.0886892   0.0512048   0.0000000), wk =   0.0555556
        k(   18) = (  -0.0886892   0.0853413   0.0000000), wk =   0.1111111
        k(   19) = (  -0.0886892   0.1194778   0.0000000), wk =   0.1111111
        k(   20) = (  -0.0886892  -0.0512048   0.0000000), wk =   0.0555556

     Largest allocated arrays     est. size (Mb)     dimensions
     Largest temporary arrays     est. size (Mb)     dimensions

     Initial potential from superposition of free atoms
     Check: negative starting charge=   -0.904227

     starting charge  191.99992, renormalised to  198.00000

     negative rho (up, down):  9.325E-01 0.000E+00

     *
     * You are using vdW-DF for exchange-correlation in this calculation.
     * Please cite the following three references that made this development
     * possible:
     *
     *   M. Dion, H. Rydberg, E. Schroder, D. C. Langreth, and
     *   B. I. Lundqvist, Phys. Rev. Lett. 92, 246401 (2004).
     *
     *   T. Thonhauser, V. R. Cooper, S. Li, A. Puzder, P. Hyldgaard, and
     *   D. C. Langreth, Phys. Rev. B 76, 125112 (2007).
     *
     *   G. Roman-Perez and J. M. Soler, Phys. Rev. Lett. 103, 096102 (2009).
     *
     *
     * If you are using vdW-DF2, please also cite:
     *
     *   K. Lee, E. D. Murray, L. Kong, B. I. Lundqvist, and
     *   D. C. Langreth, Phys. Rev. B 82, 081101(R) (2010).
     *
     *
     * If you are calculating the stress with vdW-DF, please also cite:
     *
     *   R. Sabatini, E. Kucukbenli, B. Kolb, T. Thonhauser, and
     *   S. de Gironcoli, J. Phys.: Condens. Matter 24, 424209 (2012).
     *

     Carrying out vdW-DF run using the following parameters:

     Nqs =      20    Nr_points =    1024   r_max =   100.000
     q_mesh =
               0.00001000     0.04494208     0.09755937     0.15916263
               0.23128650     0.31572767     0.41458969     0.53033537
               0.66584808     0.82450364     1.01025438     1.22772762
               1.48234092     1.78043706     2.12944203     2.53805004
               3.01644009     3.57652955     4.23227104     5.00000000

     Gradients computed in reciprocal space

     Adding external electric field

     Computed dipole along edir(3) :
        Dipole               -1.4329 Ry au,         -3.6421 Debye
        Dipole field         -0.0039 Ry au

        Potential amp.        0.3572 Ry
        Total length         45.3309 bohr

     Starting wfc are  148 randomized atomic wfcs

     Self-consistent Calculation

     iteration #  1     ecut=    36.75 Ry     beta=0.30
     Davidson diagonalization with overlap
     ethr =  1.00E-02,  avg # of iterations =  4.5

[...]

     total energy              =   -2381.83658466 Ry
     Harris-Foulkes estimate   =   -2432.75163765 Ry
     estimated scf accuracy    <     107.40100135 Ry

[...]

     End of self-consistent calculation

          k = 0.0000 0.0000 0.0000 ( 17231 PWs)   bands (ev):

   -51.1654 -50.3573 -50.3573 -49.4924 -49.4510 -49.4505 -49.3791 -49.3539
   -49.3530 -49.3193 -49.2955 -49.2947 -49.2740 -49.2164 -49.2161 -49.1998
   -49.1944 -49.1940 -49.1519 -49.0728 -49.0723 -49.0384 -49.0257 -49.0253
   -48.9751 -48.9706 -48.9706 -48.9484 -48.9480 -48.9006 -48.8771 -48.8764
   -48.8762 -48.8664 -48.8656 -48.8448 -17.0149  -5.2935  -4.9213  -4.3592
    -4.3591  -4.0180  -3.9716  -3.9715  -3.9532  -3.9075  -3.7850  -3.7847
    -3.6665  -3.4984  -3.4983  -3.4611  -3.3258  -3.2746  -3.2745  -2.4325
    -2.2538  -2.2538  -2.1147  -1.9924  -1.9924  -1.9534  -1.9408  -1.9405
    -1.7909  -1.7908  -1.6725  -1.6725  -1.6478  -1.4389  -1.4387  -1.3983
    -0.9760  -0.9755  -0.6472  -0.6470  -0.6023  -0.6022  -0.5975  -0.5169
    -0.2892  -0.2588  -0.2587  -0.0062  -0.0060   0.1774   0.1778   0.1794
     0.2571   0.2572   0.2603   0.2604   0.3689   0.3692   0.4310   0.4722
     0.4723   0.5818   0.6479   0.6667   0.6669   0.6944   1.5990   2.6768
     2.9488   2.9489   3.0686   4.0330   4.1565

[...]

          k =-0.0887 0.0512 0.0000 ( 17240 PWs)   bands (ev):

[...]

     the Fermi energy is     0.4433 ev

!    total energy              =   -2429.79125451 Ry
     Harris-Foulkes estimate   =   -2429.79122733 Ry
     estimated scf accuracy    <       0.00000610 Ry

     The total energy is the sum of the following terms:

     one-electron contribution =  -20638.85625784 Ry
     hartree contribution      =   10368.05303635 Ry
     xc contribution           =    -397.53810655 Ry
     ewald contribution        =    8238.67487340 Ry
     electric field correction =       0.00046868 Ry
     smearing contrib. (-TS)   =      -0.12526855 Ry

     convergence has been achieved in  19 iterations

 BEEF-vdW xc energy contributions
           1 :   -345.980223503924
           2 :    315.830898114341
           3 :   -264.563151521484
           4 :    206.096973278124
           5 :   -153.717062173008
           6 :    115.756211104659
           7 :   -93.9034253460447
           8 :    84.3105080088105
           9 :   -80.5789416850733
          10 :    77.0531978753675
          11 :   -70.9580488606336
          12 :    62.6638060881461
          13 :   -54.3906244858216
          14 :    48.3549312066908
          15 :   -45.4180420130202
          16 :    44.8082938352856
          17 :   -44.8297716122388
          18 :    43.9584895879211
          19 :   -41.6362858334513
          20 :    38.3716662421728
          21 :   -35.2216659535504
          22 :    33.0555482391654
          23 :   -32.0577042521957
          24 :    31.7180478285246
          25 :   -31.2450242683558
          26 :    30.0918995138920
          27 :   -28.2616297053242
          28 :    26.2297025358507
          29 :   -24.5798593585778
          30 :    23.6140564984858
          31 :   -33.7725769539779
          32 :   -24.8815961745402

     Forces acting on atoms (Ry/au):

     negative rho (up, down):  9.423E-01 0.000E+00
     atom    1 type  1   force =     0.00003859    0.00010268   -0.00007961
     atom    2 type  1   force =    -0.00005191    0.00001800   -0.00020188
     atom    3 type  1   force =    -0.00007808   -0.00007932   -0.00011456
     atom    4 type  1   force =     0.00008407   -0.00003510   -0.00238554
     atom    5 type  1   force =     0.00000686   -0.00316107    0.00220169
     atom    6 type  1   force =    -0.00000895    0.00000052   -0.00136327
     atom    7 type  1   force =     0.00274019    0.00157429    0.00218443
     atom    8 type  1   force =    -0.00272809    0.00157886    0.00216296
     atom    9 type  1   force =    -0.00006629    0.00002982   -0.09348563
     atom   10 type  1   force =     0.00005739   -0.00115678   -0.00052033
     atom   11 type  1   force =    -0.00101252    0.00059685   -0.00057654
     atom   12 type  1   force =     0.00101622    0.00053344   -0.00051874
     atom   13 type  2   force =     0.00000251   -0.00000219    0.09269702

     Total force =     0.131671     Total SCF correction =     0.004122

     entering subroutine stress ...

     negative rho (up, down):  9.423E-01 0.000E+00
          total   stress  (Ry/bohr**3)                   (kbar)     P=   -5.86
  -0.00008166  -0.00000001  -0.00000002        -12.01     -0.00     -0.00
  -0.00000001  -0.00008166   0.00000000         -0.00    -12.01      0.00
  -0.00000002   0.00000000   0.00004374         -0.00      0.00      6.43

     BFGS Geometry Optimization

     number of scf cycles    =   1
     number of bfgs steps    =   0

     energy   new            =   -2429.7912545129 Ry

     new trust radius        =       0.0934856599 bohr
     new conv_thr            =       0.0000099958 Ry

ATOMIC_POSITIONS (crystal)
Pd1      0.166666667   0.166666667   0.406452311    0   0   0
Pd1      0.666666667   0.166666667   0.406452311    0   0   0
Pd1      0.166666667   0.666666667   0.406452311    0   0   0
Pd1      0.666666667   0.666666667   0.406452311    0   0   0
Pd1      0.833333333   0.333333333   0.500000000    0   0   0
Pd1      0.333333333   0.333333333   0.500000000    0   0   0
Pd1      0.833333333   0.833333333   0.500000000    0   0   0
Pd1      0.333333333   0.833333333   0.500000000    0   0   0
Pd1     -0.000007838   0.000003232   0.591536951
Pd1      0.500068076  -0.000125379   0.593536497
Pd1     -0.000127385   0.500064690   0.593535289
Pd1      0.500066478   0.500057817   0.593536532
O1       0.000000354  -0.000000237   0.666365781

     Writing output data file calc.save
     Check: negative starting charge=   -0.904227
     NEW-OLD atomic charge density approx. for the potential
     Check: negative starting charge=   -0.906199

[...]

     Total force =     0.018436     Total SCF correction =     0.014174
     SCF correction compared to forces is large: reduce conv_thr to get better values

[...]

     energy   old            =   -2429.7912545129 Ry
     energy   new            =   -2429.7978241511 Ry

     CASE: energy  _new < energy  _old

[...]

     CASE: energy  _new > energy  _old

[...]

     Threshold (ethr) on eigenvalues was too large:
     Diagonalizing with lowered threshold

     Davidson diagonalization with overlap
     ethr =  8.62E-08,  avg # of iterations =  1.0

[...]

     Total force =     0.008736     Total SCF correction =     0.000123

[...]

     number of scf cycles    =   5
     number of bfgs steps    =   3

     energy   old            =   -2429.7979085202 Ry
     energy   new            =   -2429.7979908770 Ry

     CASE: energy  _new < energy  _old

     new trust radius        =       0.0072698550 bohr
     new conv_thr            =       0.0000001000 Ry

ATOMIC_POSITIONS (crystal)
Pd1      0.166666667   0.166666667   0.406452311    0   0   0
Pd1      0.666666667   0.166666667   0.406452311    0   0   0
Pd1      0.166666667   0.666666667   0.406452311    0   0   0
Pd1      0.666666667   0.666666667   0.406452311    0   0   0
Pd1      0.833333333   0.333333333   0.500000000    0   0   0
Pd1      0.333333333   0.333333333   0.500000000    0   0   0
Pd1      0.833333333   0.833333333   0.500000000    0   0   0
Pd1      0.333333333   0.833333333   0.500000000    0   0   0
Pd1      0.000003549  -0.000000142   0.591848859
Pd1      0.500195331  -0.000396228   0.593575045
Pd1     -0.000396312   0.500196597   0.593575389
Pd1      0.500197221   0.500199577   0.593574765
O1       0.000001212  -0.000000408   0.666032674

     Writing output data file calc.save
     Check: negative starting charge=   -0.906677
     NEW-OLD atomic charge density approx. for the potential
     Check: negative starting charge=   -0.906893

[...]

     Self-consistent Calculation

[...]

     total energy              =   -2429.79761701 Ry
     Harris-Foulkes estimate   =   -2429.79761696 Ry
     estimated scf accuracy    <       0.00000040 Ry

     iteration #  9     ecut=    36.75 Ry     beta=0.30
     Davidson diagonalization with overlap
     ethr =  2.00E-10,  avg # of iterations =  1.0

[...]

     negative rho (up, down):  9.451E-01 0.000E+00

     Adding external electric field

     Computed dipole along edir(3) :
        Dipole               -0.4652 Ry au,         -1.1823 Debye
        Dipole field         -0.0013 Ry au

        Potential amp.        0.1160 Ry
        Total length         45.3309 bohr

     End of self-consistent calculation

[...]

          k = 0.0591-0.0683 0.0000 ( 17183 PWs)   bands (ev):

[...]

          k =-0.0887-0.0512 0.0000 ( 17240 PWs)   bands (ev):

   -50.9109 -50.2657 -50.2605 -49.5368 -49.4890 -49.4721 -49.4620 -49.4515
   -49.4467 -49.4339 -49.4237 -49.3994 -49.3922 -49.3616 -49.3214 -49.2452
   -49.2373 -49.1964 -49.1787 -49.1701 -49.1646 -49.1449 -49.1238 -49.1193
   -49.1064 -49.1035 -49.0900 -49.0796 -49.0398 -48.9722 -48.9675 -48.9599
   -48.9564 -48.9528 -48.9482 -48.9349 -16.5804  -4.4709  -4.0550  -4.0198
    -3.9093  -3.6343  -3.5409  -3.4415  -3.3812  -3.2923  -3.2051  -3.1400
    -3.0939  -3.0884  -2.9771  -2.9104  -2.8754  -2.7608  -2.7354  -2.7175
    -2.4096  -2.3843  -2.3414  -2.3399  -2.2929  -2.1841  -2.0583  -2.0046
    -1.8330  -1.7660  -1.6899  -1.6608  -1.5994  -1.5662  -1.5559  -1.5116
    -1.5000  -1.4287  -1.4153  -1.4021  -1.3681  -1.2587  -1.1613  -1.0811
    -1.0252  -0.9392  -0.9113  -0.8910  -0.7951  -0.7734  -0.6971  -0.6747
    -0.6204  -0.5961  -0.5270  -0.3423  -0.2878  -0.2576  -0.1681   0.0347
     0.1431   0.1854   0.2283   0.3089   0.3774   0.4024   0.7445   1.3300
     2.8010   2.8582   2.9481   3.3546   4.1276

     the Fermi energy is     0.3603 ev

!    total energy              =   -2429.79761701 Ry
     Harris-Foulkes estimate   =   -2429.79761590 Ry
     estimated scf accuracy    <       0.00000007 Ry

     The total energy is the sum of the following terms:

     one-electron contribution =  -20647.49512015 Ry
     hartree contribution      =   10372.05360928 Ry
     xc contribution           =    -397.49245406 Ry
     ewald contribution        =    8243.26216728 Ry
     electric field correction =       0.00059497 Ry
     smearing contrib. (-TS)   =      -0.12641434 Ry

     convergence has been achieved in   9 iterations

 BEEF-vdW xc energy contributions
           1 :   -345.920160228247
           2 :    315.755088970965
           3 :   -264.469573089712
           4 :    205.998143302265
           5 :   -153.630416153439
           6 :    115.694537038007
           7 :   -93.8716530940138
           8 :    84.3074921144209
           9 :   -80.5998080050059
          10 :    77.0897362214091
          11 :   -70.9987066484142
          12 :    62.6957090754029
          13 :   -54.4034995058519
          14 :    48.3451396495390
          15 :   -45.3909781197693
          16 :    44.7771425213116
          17 :   -44.8093003401157
          18 :    43.9570706551723
          19 :   -41.6514427878615
          20 :    38.3919209018776
          21 :   -35.2336029663846
          22 :    33.0516262082012
          23 :   -32.0400537649407
          24 :    31.6965556752593
          25 :   -31.2314810613045
          26 :    30.0934133163839
          27 :   -28.2771540067732
          28 :    26.2518681020815
          29 :   -24.5995415149596
          30 :    23.6241890530791
          31 :   -33.7690729657106
          32 :   -24.8748673993397

     Forces acting on atoms (Ry/au):

     negative rho (up, down):  9.451E-01 0.000E+00
     atom    1 type  1   force =     0.00005855    0.00003966    0.00007095
     atom    2 type  1   force =    -0.00005882    0.00002834    0.00008160
     atom    3 type  1   force =    -0.00000927   -0.00006840    0.00007301
     atom    4 type  1   force =     0.00001048   -0.00000126   -0.00202985
     atom    5 type  1   force =    -0.00000101   -0.00145007    0.00048769
     atom    6 type  1   force =     0.00000089    0.00000052   -0.00065218
     atom    7 type  1   force =     0.00125699    0.00072579    0.00049013
     atom    8 type  1   force =    -0.00125643    0.00072457    0.00048715
     atom    9 type  1   force =    -0.00001973    0.00000105   -0.00035221
     atom   10 type  1   force =     0.00001861   -0.00047041    0.00032037
     atom   11 type  1   force =    -0.00040790    0.00024501    0.00031262
     atom   12 type  1   force =     0.00040837    0.00022524    0.00032793
     atom   13 type  2   force =    -0.00000073   -0.00000004    0.00038279

     Total force =     0.001116     Total SCF correction =     0.000397
     SCF correction compared to forces is large: reduce conv_thr to get better values

     entering subroutine stress ...

     negative rho (up, down):  9.451E-01 0.000E+00
          total   stress  (Ry/bohr**3)                   (kbar)     P=   -8.33
  -0.00007792   0.00000000  -0.00000000        -11.46      0.00     -0.00
   0.00000000  -0.00007792   0.00000000          0.00    -11.46      0.00
  -0.00000000   0.00000000  -0.00001413         -0.00      0.00     -2.08

     bfgs converged in   6 scf cycles and   4 bfgs steps
     (criteria: energy <  1.0E+00, force <  1.9E-03)

     End of BFGS Geometry Optimization

     Final energy   =   -2429.7976170104 Ry
Begin final coordinates

ATOMIC_POSITIONS (crystal)
Pd1      0.166666667   0.166666667   0.406452311    0   0   0
Pd1      0.666666667   0.166666667   0.406452311    0   0   0
Pd1      0.166666667   0.666666667   0.406452311    0   0   0
Pd1      0.666666667   0.666666667   0.406452311    0   0   0
Pd1      0.833333333   0.333333333   0.500000000    0   0   0
Pd1      0.333333333   0.333333333   0.500000000    0   0   0
Pd1      0.833333333   0.833333333   0.500000000    0   0   0
Pd1      0.333333333   0.833333333   0.500000000    0   0   0
Pd1      0.000003549  -0.000000142   0.591848859
Pd1      0.500195331  -0.000396228   0.593575045
Pd1     -0.000396312   0.500196597   0.593575389
Pd1      0.500197221   0.500199577   0.593574765
O1       0.000001212  -0.000000408   0.666032674
End final coordinates

     Writing output data file calc.save

     General routines

     Parallel routines

   This run was terminated on:   9:13:55   3May2018

   JOB DONE.
Job  /afs/slac/g/suncat/bin/suncat-tsmpirun -x LD_LIBRARY_PATH -wdir /scratch/qe686721_eSosl pw.x -npool 4 -in pw.inp

TID   HOST_NAME   COMMAND_LINE            STATUS            TERMINATION_TIME
00000 suncat0088 pw.x -npool 4 -i  Done                     05/03/2018 09:13:55
00001 suncat0088 pw.x -npool 4 -i  Done                     05/03/2018 09:13:55
00002 suncat0088 pw.x -npool 4 -i  Done                     05/03/2018 09:13:55
00003 suncat0088 pw.x -npool 4 -i  Done                     05/03/2018 09:13:55
00004 suncat0088 pw.x -npool 4 -i  Done                     05/03/2018 09:13:55
00005 suncat0088 pw.x -npool 4 -i  Done                     05/03/2018 09:13:55
00006 suncat0088 pw.x -npool 4 -i  Done                     05/03/2018 09:13:55
00007 suncat0088 pw.x -npool 4 -i  Done                     05/03/2018 09:13:55
00008 suncat0066 pw.x -npool 4 -i  Done                     05/03/2018 09:13:55
00009 suncat0066 pw.x -npool 4 -i  Done                     05/03/2018 09:13:55
00010 suncat0066 pw.x -npool 4 -i  Done                     05/03/2018 09:13:55
00011 suncat0066 pw.x -npool 4 -i  Done                     05/03/2018 09:13:55
00012 suncat0066 pw.x -npool 4 -i  Done                     05/03/2018 09:13:55
00013 suncat0066 pw.x -npool 4 -i  Done                     05/03/2018 09:13:55
00014 suncat0066 pw.x -npool 4 -i  Done                     05/03/2018 09:13:55
00015 suncat0066 pw.x -npool 4 -i  Done                     05/03/2018 09:13:55
00016 suncat0008 pw.x -npool 4 -i  Done                     05/03/2018 09:13:55
00017 suncat0008 pw.x -npool 4 -i  Done                     05/03/2018 09:13:55
00018 suncat0008 pw.x -npool 4 -i  Done                     05/03/2018 09:13:55
00019 suncat0008 pw.x -npool 4 -i  Done                     05/03/2018 09:13:55
00020 suncat0008 pw.x -npool 4 -i  Done                     05/03/2018 09:13:55
00021 suncat0008 pw.x -npool 4 -i  Done                     05/03/2018 09:13:55
00022 suncat0008 pw.x -npool 4 -i  Done                     05/03/2018 09:13:55
00023 suncat0008 pw.x -npool 4 -i  Done                     05/03/2018 09:13:55
00024 suncat0001 pw.x -npool 4 -i  Done                     05/03/2018 09:13:55
00025 suncat0001 pw.x -npool 4 -i  Done                     05/03/2018 09:13:55
00026 suncat0001 pw.x -npool 4 -i  Done                     05/03/2018 09:13:55
00027 suncat0001 pw.x -npool 4 -i  Done                     05/03/2018 09:13:55
00028 suncat0001 pw.x -npool 4 -i  Done                     05/03/2018 09:13:55
00029 suncat0001 pw.x -npool 4 -i  Done                     05/03/2018 09:13:55
00030 suncat0001 pw.x -npool 4 -i  Done                     05/03/2018 09:13:55
00031 suncat0001 pw.x -npool 4 -i  Done                     05/03/2018 09:13:55