     Program PWSCF v.5.1rc2 (svn rev. 11289) starts on 16Jan2018 at 16:12:27

     Current dimensions of program PWSCF are:
     Max number of different atomic species (ntypx) = 10
     Max number of k-points (npk) =  40000
     Max angular momentum in pseudopotentials (lmaxx) =  3
     Presently stress not available with electric field

     IMPORTANT: XC functional enforced from input :
     Exchange-correlation      = BEEF-VDW ( 1  4 27 13 2)
     Any further DFT definition will be discarded
     Please, verify this is what you really want

     Subspace diagonalization in iterative solution of the eigenvalue problem:
     a serial algorithm will be used

     bravais-lattice index     =            0
     lattice parameter (alat)  =       1.8897  a.u.
     unit-cell volume          =    4481.2752 (a.u.)^3
     number of atoms/cell      =           13
     number of atomic types    =            2
     number of electrons       =       193.00
     number of Kohn-Sham states=          106
     kinetic-energy cutoff     =      36.7493  Ry
     charge density cutoff     =     367.4932  Ry
     convergence threshold     =      1.0E-05
     mixing beta               =       0.3000
     number of iterations used =           10  plain     mixing
     Exchange-correlation      = BEEF-VDW ( 1  4 27 13 2)
     nstep                     =           50

     celldm(1)=   1.889726  celldm(2)=   0.000000  celldm(3)=   0.000000
     celldm(4)=   0.000000  celldm(5)=   0.000000  celldm(6)=   0.000000

     crystal axes: (cart. coord. in units of alat)
               a(1) = (   5.587338   0.000000   0.000000 )
               a(2) = (   2.793669   4.838777   0.000000 )
               a(3) = (   0.000000   0.000000  24.562042 )

     reciprocal axes: (cart. coord. in units 2 pi/alat)
               b(1) = (  0.178976 -0.103332  0.000000 )
               b(2) = (  0.000000  0.206664  0.000000 )
               b(3) = (  0.000000  0.000000  0.040713 )

     PseudoPot. # 1 for Pt read from file:
     /afs/slac.stanford.edu/u/if/mamunm/psp/gbrv1.5pbe/Pt.UPF
     MD5 check sum: f09d6de1a584b5a045c4fc126da2d0c4
     Pseudo is Ultrasoft + core correction, Zval = 16.0
     Generated by new atomic code, or converted to UPF format
     Using radial grid of  985 points,  6 beta functions with:
                l(1) =   0
                l(2) =   0
                l(3) =   1
                l(4) =   1
                l(5) =   2
                l(6) =   2
     Q(r) pseudized with  8 coefficients,  rinner =    1.300   1.300   1.300
                                                       1.300   1.300

     PseudoPot. # 2 for H  read from file:
     /afs/slac.stanford.edu/u/if/mamunm/psp/gbrv1.5pbe/H.UPF
     MD5 check sum: 761ae9a214b05c3daf00ab9f6b793d6f
     Pseudo is Ultrasoft, Zval =  1.0
     Generated by new atomic code, or converted to UPF format
     Using radial grid of  615 points,  2 beta functions with:
                l(1) =   0
                l(2) =   0
     Q(r) pseudized with  8 coefficients,  rinner =    0.700

     vdW kernel table read from file vdW_kernel_table
     MD5 check sum: 095c7af220d748ca6e76c0b4c6cfb241

     atomic species   valence    mass     pseudopotential
        Pt1           16.00   195.08400     Pt( 1.00)
        H1             1.00     1.00800     H ( 1.00)

     No symmetry found

   Cartesian axes

     site n.     atom                  positions (alat units)
         1           Pt1 tau(   1) = (   1.3968345   0.8064628  10.0000000  )
         2           Pt1 tau(   2) = (   4.1905036   0.8064628  10.0000000  )
         3           Pt1 tau(   3) = (   2.7936691   3.2258512  10.0000000  )
         4           Pt1 tau(   4) = (   5.5873381   3.2258512  10.0000000  )
         5           Pt1 tau(   5) = (   5.5873381   1.6129256  12.2810212  )
         6           Pt1 tau(   6) = (   2.7936691   1.6129256  12.2810212  )
         7           Pt1 tau(   7) = (   6.9841727   4.0323140  12.2810212  )
         8           Pt1 tau(   8) = (   4.1905036   4.0323140  12.2810212  )
         9           Pt1 tau(   9) = (   0.0000000   0.0000000  14.5620425  )
        10           Pt1 tau(  10) = (   2.7936691   0.0000000  14.5620425  )
        11           Pt1 tau(  11) = (   1.3968345   2.4193884  14.5620425  )
        12           Pt1 tau(  12) = (   4.1905036   2.4193884  14.5620425  )
        13           H1  tau(  13) = (   2.7936691   1.6129256  16.2320425  )

     number of k points=    20  Fermi-Dirac smearing, width (Ry)=  0.0110
                       cart. coord. in units 2pi/alat
        k(    1) = (   0.0000000   0.0000000   0.0000000), wk =   0.0555556
        k(    2) = (   0.0000000   0.0344440   0.0000000), wk =   0.1111111
        k(    3) = (   0.0000000   0.0688879   0.0000000), wk =   0.1111111
        k(    4) = (   0.0000000  -0.1033319   0.0000000), wk =   0.0555556
        k(    5) = (   0.0298294  -0.0172220   0.0000000), wk =   0.1111111
        k(    6) = (   0.0298294   0.0172220   0.0000000), wk =   0.1111111
        k(    7) = (   0.0298294   0.0516660   0.0000000), wk =   0.1111111
        k(    8) = (   0.0298294  -0.1205539   0.0000000), wk =   0.1111111
        k(    9) = (   0.0298294  -0.0861099   0.0000000), wk =   0.1111111
        k(   10) = (   0.0298294  -0.0516660   0.0000000), wk =   0.1111111
        k(   11) = (   0.0596587  -0.0344440   0.0000000), wk =   0.1111111
        k(   12) = (   0.0596587   0.0000000   0.0000000), wk =   0.1111111
        k(   13) = (   0.0596587   0.0344440   0.0000000), wk =   0.1111111
        k(   14) = (   0.0596587  -0.1377759   0.0000000), wk =   0.1111111
        k(   15) = (   0.0596587  -0.1033319   0.0000000), wk =   0.1111111
        k(   16) = (   0.0596587  -0.0688879   0.0000000), wk =   0.1111111
        k(   17) = (  -0.0894881   0.0516660   0.0000000), wk =   0.0555556
        k(   18) = (  -0.0894881   0.0861099   0.0000000), wk =   0.1111111
        k(   19) = (  -0.0894881   0.1205539   0.0000000), wk =   0.1111111
        k(   20) = (  -0.0894881  -0.0516660   0.0000000), wk =   0.0555556

     Largest allocated arrays     est. size (Mb)     dimensions
     Largest temporary arrays     est. size (Mb)     dimensions

     Initial potential from superposition of free atoms
     Check: negative starting charge=   -2.200765

     starting charge  186.99986, renormalised to  193.00000

     negative rho (up, down):  2.271E+00 0.000E+00

     *
     * You are using vdW-DF for exchange-correlation in this calculation.
     * Please cite the following three references that made this development
     * possible:
     *
     *   M. Dion, H. Rydberg, E. Schroder, D. C. Langreth, and
     *   B. I. Lundqvist, Phys. Rev. Lett. 92, 246401 (2004).
     *
     *   T. Thonhauser, V. R. Cooper, S. Li, A. Puzder, P. Hyldgaard, and
     *   D. C. Langreth, Phys. Rev. B 76, 125112 (2007).
     *
     *   G. Roman-Perez and J. M. Soler, Phys. Rev. Lett. 103, 096102 (2009).
     *
     *
     * If you are using vdW-DF2, please also cite:
     *
     *   K. Lee, E. D. Murray, L. Kong, B. I. Lundqvist, and
     *   D. C. Langreth, Phys. Rev. B 82, 081101(R) (2010).
     *
     *
     * If you are calculating the stress with vdW-DF, please also cite:
     *
     *   R. Sabatini, E. Kucukbenli, B. Kolb, T. Thonhauser, and
     *   S. de Gironcoli, J. Phys.: Condens. Matter 24, 424209 (2012).
     *

     Carrying out vdW-DF run using the following parameters:

     Nqs =      20    Nr_points =    1024   r_max =   100.000
     q_mesh =
               0.00001000     0.04494208     0.09755937     0.15916263
               0.23128650     0.31572767     0.41458969     0.53033537
               0.66584808     0.82450364     1.01025438     1.22772762
               1.48234092     1.78043706     2.12944203     2.53805004
               3.01644009     3.57652955     4.23227104     5.00000000

     Gradients computed in reciprocal space

     Adding external electric field

     Computed dipole along edir(3) :
        Dipole               -0.2395 Ry au,         -0.6087 Debye
        Dipole field         -0.0007 Ry au

        Potential amp.        0.0608 Ry
        Total length         45.2551 bohr

     Starting wfc are  145 randomized atomic wfcs

     Self-consistent Calculation

     iteration #  1     ecut=    36.75 Ry     beta=0.30
     Davidson diagonalization with overlap
     ethr =  1.00E-02,  avg # of iterations =  3.1

[...]

     total energy              =   -2545.42692511 Ry
     Harris-Foulkes estimate   =   -2552.52283260 Ry
     estimated scf accuracy    <      16.32296212 Ry

[...]

     End of self-consistent calculation

          k = 0.0000 0.0000 0.0000 ( 16787 PWs)   bands (ev):

   -51.2490 -51.2424 -51.2424 -51.1312 -51.0994 -51.0993 -51.0868 -51.0025
   -50.9944 -50.9944 -50.9798 -50.9450 -50.9450 -50.9136 -50.9136 -50.8832
   -50.8832 -50.8721 -50.7475 -50.7432 -50.7432 -50.6661 -50.6660 -50.6527
   -50.6273 -50.6273 -50.5833 -50.5809 -50.5809 -50.5523 -50.5523 -50.4824
   -50.4443 -50.4285 -50.4284 -50.4165  -7.0413  -5.3774  -4.8853  -4.5085
    -4.5049  -4.5048  -4.3471  -4.2816  -4.2816  -3.8428  -3.8339  -3.8339
    -3.7344  -3.6739  -3.6739  -2.6007  -2.2747  -2.2747  -1.9621  -1.8901
    -1.8901  -1.7312  -1.6292  -1.6292  -1.4528  -1.3336  -1.3336  -1.1880
    -1.1818  -1.1817  -1.1080  -1.1080  -0.5831  -0.5831  -0.5809  -0.4981
     0.3078   0.3078   0.3226   0.3601   0.3601   0.5138   0.5138   0.6957
     0.9692   0.9692   1.5163   1.5163   1.5318   1.5554   1.5560   1.5560
     1.6796   1.6796   1.9119   1.9249   1.9282   1.9282   2.1957   2.2224
     2.2224   2.2999   2.2999   2.3012   2.9246   3.0953   3.0953   4.3591
     4.7156   4.7156

[...]

          k =-0.0895 0.0517 0.0000 ( 16880 PWs)   bands (ev):

[...]

     the Fermi energy is     1.7605 ev

!    total energy              =   -2549.31096383 Ry
     Harris-Foulkes estimate   =   -2549.31096376 Ry
     estimated scf accuracy    <       0.00000023 Ry

     The total energy is the sum of the following terms:

     one-electron contribution =  -20229.40674521 Ry
     hartree contribution      =   10151.56555782 Ry
     xc contribution           =    -704.07526878 Ry
     ewald contribution        =    8232.71449016 Ry
     electric field correction =       0.00000003 Ry
     smearing contrib. (-TS)   =      -0.10899784 Ry

     convergence has been achieved in  17 iterations

 BEEF-vdW xc energy contributions
           1 :   -626.970304632375
           2 :    583.685799134029
           3 :   -505.979060323188
           4 :    408.543279725749
           5 :   -307.540238406748
           6 :    216.465681436686
           7 :   -143.433924717987
           8 :    90.4516094472328
           9 :   -54.6248341764497
          10 :    30.5743262735707
          11 :   -13.0195668640899
          12 :   -1.43175315199414
          13 :    13.7576319123642
          14 :   -23.1596143411989
          15 :    28.3163132176169
          16 :   -28.5857974295905
          17 :    24.6291621703992
          18 :   -18.2824874484027
          19 :    11.8554099754401
          20 :   -7.26338971475457
          21 :    5.39859635209734
[...]

[...]

     Total force =     0.086326     Total SCF correction =     0.008928
     SCF correction compared to forces is large: reduce conv_thr to get better values

[...]

   This run was terminated on:  16:35:58  16Jan2018

[...]

     Program PWSCF v.5.1rc2 (svn rev. 11289) starts on 16Jan2018 at 16:36: 3

[...]

     Program PWSCF v.5.1rc2 (svn rev. 11289) starts on 16Jan2018 at 17: 0: 0

[...]

     Total force =     0.066908     Total SCF correction =     0.004335

[...]

   This run was terminated on:  17:34: 6  16Jan2018

[...]

     Program PWSCF v.5.1rc2 (svn rev. 11289) starts on 16Jan2018 at 17:34:12

     Current dimensions of program PWSCF are:
     Max number of different atomic species (ntypx) = 10
     Max number of k-points (npk) =  40000
     Max angular momentum in pseudopotentials (lmaxx) =  3
     Presently stress not available with electric field

     IMPORTANT: XC functional enforced from input :
     Exchange-correlation      = BEEF-VDW ( 1  4 27 13 2)
     Any further DFT definition will be discarded
     Please, verify this is what you really want

     Subspace diagonalization in iterative solution of the eigenvalue problem:
     a serial algorithm will be used

     bravais-lattice index     =            0
     lattice parameter (alat)  =       1.8897  a.u.
     unit-cell volume          =    4481.2752 (a.u.)^3
     number of atoms/cell      =           13
     number of atomic types    =            2
     number of electrons       =       193.00
     number of Kohn-Sham states=          106
     kinetic-energy cutoff     =      36.7493  Ry
     charge density cutoff     =     367.4932  Ry
     convergence threshold     =      1.0E-05
     mixing beta               =       0.3000
     number of iterations used =           10  plain     mixing
     Exchange-correlation      = BEEF-VDW ( 1  4 27 13 2)
     nstep                     =           50

     celldm(1)=   1.889726  celldm(2)=   0.000000  celldm(3)=   0.000000
     celldm(4)=   0.000000  celldm(5)=   0.000000  celldm(6)=   0.000000

     crystal axes: (cart. coord. in units of alat)
               a(1) = (   5.587338   0.000000   0.000000 )
               a(2) = (   2.793669   4.838777   0.000000 )
               a(3) = (   0.000000   0.000000  24.562042 )

     reciprocal axes: (cart. coord. in units 2 pi/alat)
               b(1) = (  0.178976 -0.103332  0.000000 )
               b(2) = (  0.000000  0.206664  0.000000 )
               b(3) = (  0.000000  0.000000  0.040713 )

     PseudoPot. # 1 for Pt read from file:
     /afs/slac.stanford.edu/u/if/mamunm/psp/gbrv1.5pbe/Pt.UPF
     MD5 check sum: f09d6de1a584b5a045c4fc126da2d0c4
     Pseudo is Ultrasoft + core correction, Zval = 16.0
     Generated by new atomic code, or converted to UPF format
     Using radial grid of  985 points,  6 beta functions with:
                l(1) =   0
                l(2) =   0
                l(3) =   1
                l(4) =   1
                l(5) =   2
                l(6) =   2
     Q(r) pseudized with  8 coefficients,  rinner =    1.300   1.300   1.300
                                                       1.300   1.300

     PseudoPot. # 2 for H  read from file:
     /afs/slac.stanford.edu/u/if/mamunm/psp/gbrv1.5pbe/H.UPF
     MD5 check sum: 761ae9a214b05c3daf00ab9f6b793d6f
     Pseudo is Ultrasoft, Zval =  1.0
     Generated by new atomic code, or converted to UPF format
     Using radial grid of  615 points,  2 beta functions with:
                l(1) =   0
                l(2) =   0
     Q(r) pseudized with  8 coefficients,  rinner =    0.700

     vdW kernel table read from file vdW_kernel_table
     MD5 check sum: 095c7af220d748ca6e76c0b4c6cfb241

     atomic species   valence    mass     pseudopotential
        Pt1           16.00   195.08400     Pt( 1.00)
        H1             1.00     1.00800     H ( 1.00)

     No symmetry found

   Cartesian axes

     site n.     atom                  positions (alat units)
         1           Pt1 tau(   1) = (   1.3968345   0.8064628  10.0000000  )
         2           Pt1 tau(   2) = (   4.1905036   0.8064628  10.0000000  )
         3           Pt1 tau(   3) = (   2.7936691   3.2258512  10.0000000  )
         4           Pt1 tau(   4) = (   5.5873381   3.2258512  10.0000000  )
         5           Pt1 tau(   5) = (   5.5873381   1.6129256  12.2810212  )
         6           Pt1 tau(   6) = (   2.7936691   1.6129256  12.2810212  )
         7           Pt1 tau(   7) = (   6.9841727   4.0323140  12.2810212  )
         8           Pt1 tau(   8) = (   4.1905036   4.0323140  12.2810212  )
         9           Pt1 tau(   9) = (   2.7936917   4.8385947  14.6037284  )
        10           Pt1 tau(  10) = (   5.5873588   4.8145135  14.6770775  )
        11           Pt1 tau(  11) = (   6.9633621   2.4315850  14.6774076  )
        12           Pt1 tau(  12) = (   4.2113756   2.4315873  14.6769782  )
        13           H1  tau(  13) = (   2.7936742   1.6129422  15.5705889  )

     number of k points=    20  Fermi-Dirac smearing, width (Ry)=  0.0110
                       cart. coord. in units 2pi/alat
        k(    1) = (   0.0000000   0.0000000   0.0000000), wk =   0.0555556
        k(    2) = (   0.0000000   0.0344440   0.0000000), wk =   0.1111111
        k(    3) = (   0.0000000   0.0688879   0.0000000), wk =   0.1111111
        k(    4) = (   0.0000000  -0.1033319   0.0000000), wk =   0.0555556
        k(    5) = (   0.0298294  -0.0172220   0.0000000), wk =   0.1111111
        k(    6) = (   0.0298294   0.0172220   0.0000000), wk =   0.1111111
        k(    7) = (   0.0298294   0.0516660   0.0000000), wk =   0.1111111
        k(    8) = (   0.0298294  -0.1205539   0.0000000), wk =   0.1111111
        k(    9) = (   0.0298294  -0.0861099   0.0000000), wk =   0.1111111
        k(   10) = (   0.0298294  -0.0516660   0.0000000), wk =   0.1111111
        k(   11) = (   0.0596587  -0.0344440   0.0000000), wk =   0.1111111
        k(   12) = (   0.0596587   0.0000000   0.0000000), wk =   0.1111111
        k(   13) = (   0.0596587   0.0344440   0.0000000), wk =   0.1111111
        k(   14) = (   0.0596587  -0.1377759   0.0000000), wk =   0.1111111
        k(   15) = (   0.0596587  -0.1033319   0.0000000), wk =   0.1111111
        k(   16) = (   0.0596587  -0.0688879   0.0000000), wk =   0.1111111
        k(   17) = (  -0.0894881   0.0516660   0.0000000), wk =   0.0555556
        k(   18) = (  -0.0894881   0.0861099   0.0000000), wk =   0.1111111
        k(   19) = (  -0.0894881   0.1205539   0.0000000), wk =   0.1111111
        k(   20) = (  -0.0894881  -0.0516660   0.0000000), wk =   0.0555556

     Largest allocated arrays     est. size (Mb)     dimensions
     Largest temporary arrays     est. size (Mb)     dimensions

     Check: negative/imaginary core charge=   -0.000001    0.000000

     Initial potential from superposition of free atoms
     Check: negative starting charge=   -2.201330

     starting charge  186.99986, renormalised to  193.00000

[...]

     *
     * You are using vdW-DF for exchange-correlation in this calculation.
     * Please cite the following three references that made this development
     * possible:
     *
     *   M. Dion, H. Rydberg, E. Schroder, D. C. Langreth, and
     *   B. I. Lundqvist, Phys. Rev. Lett. 92, 246401 (2004).
     *
     *   T. Thonhauser, V. R. Cooper, S. Li, A. Puzder, P. Hyldgaard, and
     *   D. C. Langreth, Phys. Rev. B 76, 125112 (2007).
     *
     *   G. Roman-Perez and J. M. Soler, Phys. Rev. Lett. 103, 096102 (2009).
     *
     *
     * If you are using vdW-DF2, please also cite:
     *
     *   K. Lee, E. D. Murray, L. Kong, B. I. Lundqvist, and
     *   D. C. Langreth, Phys. Rev. B 82, 081101(R) (2010).
     *
     *
     * If you are calculating the stress with vdW-DF, please also cite:
     *
     *   R. Sabatini, E. Kucukbenli, B. Kolb, T. Thonhauser, and
     *   S. de Gironcoli, J. Phys.: Condens. Matter 24, 424209 (2012).
     *

     Carrying out vdW-DF run using the following parameters:

     Nqs =      20    Nr_points =    1024   r_max =   100.000
     q_mesh =
               0.00001000     0.04494208     0.09755937     0.15916263
               0.23128650     0.31572767     0.41458969     0.53033537
               0.66584808     0.82450364     1.01025438     1.22772762
               1.48234092     1.78043706     2.12944203     2.53805004
               3.01644009     3.57652955     4.23227104     5.00000000

     Gradients computed in reciprocal space

[...]

     Starting wfc are  145 randomized atomic wfcs

     Self-consistent Calculation

[...]

     total energy              =   -2549.38192140 Ry
     Harris-Foulkes estimate   =   -2549.38192362 Ry
     estimated scf accuracy    <       0.00002006 Ry

     iteration # 15     ecut=    36.75 Ry     beta=0.30
     Davidson diagonalization with overlap
     ethr =  1.04E-08,  avg # of iterations =  1.4

[...]

     negative rho (up, down):  2.119E+00 0.000E+00

     Adding external electric field

     Computed dipole along edir(3) :
        Dipole                0.0196 Ry au,          0.0499 Debye
        Dipole field          0.0001 Ry au

        Potential amp.       -0.0050 Ry
        Total length         45.2551 bohr

     End of self-consistent calculation

[...]

          k = 0.0597-0.0689 0.0000 ( 16875 PWs)   bands (ev):

[...]

          k =-0.0895-0.0517 0.0000 ( 16880 PWs)   bands (ev):

   -51.1362 -51.1121 -51.0331 -51.0271 -51.0201 -51.0100 -51.0032 -50.9896
   -50.9886 -50.9758 -50.9428 -50.9081 -50.8868 -50.8861 -50.8666 -50.8332
   -50.8266 -50.8233 -50.7992 -50.7638 -50.7449 -50.7322 -50.7259 -50.7232
   -50.7197 -50.6412 -50.6388 -50.6294 -50.4851 -50.4731 -50.4653 -50.4518
   -50.4481 -50.4425 -50.4381 -50.4258  -5.7270  -5.1373  -4.8596  -3.8572
    -3.6761  -3.4718  -3.4247  -3.4098  -3.3657  -3.3042  -3.1314  -2.8815
    -2.8672  -2.6794  -2.6607  -2.5080  -2.4290  -2.1700  -2.1343  -2.1235
    -2.1106  -2.0730  -2.0017  -1.6968  -1.6334  -1.3478  -1.3078  -1.2797
    -1.2778  -1.2008  -1.1174  -1.0158  -0.9773  -0.9754  -0.9055  -0.8945
    -0.8155  -0.7576  -0.7167  -0.6610  -0.1967  -0.1605  -0.1272  -0.0862
    -0.0278   0.0175   0.1969   0.2232   0.2481   0.3450   0.4582   0.4842
     0.8081   0.8558   0.8976   0.9664   0.9907   1.0999   1.4901   1.4935
     1.6462   1.6929   1.9494   1.9814   3.0289   3.3228   3.9141   3.9449
     4.4906   4.7273

     the Fermi energy is     1.7373 ev

!    total energy              =   -2549.38192229 Ry
     Harris-Foulkes estimate   =   -2549.38192274 Ry
     estimated scf accuracy    <       0.00000138 Ry

     The total energy is the sum of the following terms:

     one-electron contribution =  -19995.38768993 Ry
     hartree contribution      =   10034.73775635 Ry
     xc contribution           =    -704.11290696 Ry
     ewald contribution        =    8115.48822323 Ry
     electric field correction =       0.00000108 Ry
     smearing contrib. (-TS)   =      -0.10730607 Ry

     convergence has been achieved in  15 iterations

 BEEF-vdW xc energy contributions
           1 :   -627.000274138166
           2 :    583.672100422718
           3 :   -505.896777287048
           4 :    408.399463095926
           5 :   -307.370411194292
           6 :    216.314257388920
           7 :   -143.332127527406
           8 :    90.4023992865584
           9 :   -54.6007254013484
          10 :    30.5308781907002
          11 :   -12.9194622763614
          12 :   -1.59539298814684
          13 :    13.9524328474824
          14 :   -23.3257643095785
          15 :    28.3946591268009
          16 :   -28.5494706495759
          17 :    24.5013477978791
          18 :   -18.1281717296597
          19 :    11.7496381701626
          20 :   -7.25359869314434
          21 :    5.48078362988940
          22 :   -6.10361982941686
          23 :    7.98141912244319
          24 :   -9.77790017541429
          25 :    10.5403996602683
          26 :   -10.0083463924364
          27 :    8.56765487810276
          28 :   -6.93862008691076
          29 :    5.77985037815608
          30 :   -5.39878572152020
          31 :   -51.3660353305552
          32 :   -38.0016170461439

     Forces acting on atoms (Ry/au):

     negative rho (up, down):  2.119E+00 0.000E+00
     atom    1 type  1   force =    -0.00032779   -0.00020386   -0.01762337
     atom    2 type  1   force =     0.00032418   -0.00015879   -0.01770950
     atom    3 type  1   force =     0.00003739    0.00037388   -0.01766993
     atom    4 type  1   force =    -0.00002858   -0.00000422   -0.01363449
     atom    5 type  1   force =     0.00004150    0.00210068    0.01645884
     atom    6 type  1   force =    -0.00002432   -0.00000408    0.01639021
     atom    7 type  1   force =    -0.00182812   -0.00106986    0.01642043
     atom    8 type  1   force =     0.00182726   -0.00102464    0.01639580
     atom    9 type  1   force =     0.00002733    0.00011228    0.00042295
     atom   10 type  1   force =    -0.00003128    0.00084379   -0.00003887
     atom   11 type  1   force =     0.00061965   -0.00049327   -0.00004276
     atom   12 type  1   force =    -0.00063725   -0.00046393   -0.00010827
     atom   13 type  2   force =     0.00000003   -0.00000798    0.00073896

     Total force =     0.047082     Total SCF correction =     0.009143
     SCF correction compared to forces is large: reduce conv_thr to get better values

     entering subroutine stress ...

     negative rho (up, down):  2.119E+00 0.000E+00
          total   stress  (Ry/bohr**3)                   (kbar)     P=  -11.48
  -0.00014302   0.00000001  -0.00000000        -21.04      0.00     -0.00
   0.00000001  -0.00014306  -0.00000000          0.00    -21.04     -0.00
  -0.00000000  -0.00000000   0.00005203         -0.00     -0.00      7.65

 !ASE

     Writing output data file calc.save

     General routines

     Parallel routines

   This run was terminated on:  17:45:17  16Jan2018

   JOB DONE.
Job  /afs/slac/g/suncat/bin/suncat-tsmpirun -x LD_LIBRARY_PATH -wdir /scratch/qe842471_jiaO4 pw.x -in pw.inp

TID   HOST_NAME   COMMAND_LINE            STATUS            TERMINATION_TIME
00000 suncat0264 pw.x -in pw.inp   Done                     01/16/2018 17:45:17
00001 suncat0264 pw.x -in pw.inp   Done                     01/16/2018 17:45:17
00002 suncat0264 pw.x -in pw.inp   Done                     01/16/2018 17:45:17
00003 suncat0264 pw.x -in pw.inp   Done                     01/16/2018 17:45:17
00004 suncat0264 pw.x -in pw.inp   Done                     01/16/2018 17:45:17
00005 suncat0264 pw.x -in pw.inp   Done                     01/16/2018 17:45:17
00006 suncat0264 pw.x -in pw.inp   Done                     01/16/2018 17:45:17
00007 suncat0264 pw.x -in pw.inp   Done                     01/16/2018 17:45:17
00008 suncat0259 pw.x -in pw.inp   Done                     01/16/2018 17:45:17
00009 suncat0259 pw.x -in pw.inp   Done                     01/16/2018 17:45:17
00010 suncat0259 pw.x -in pw.inp   Done                     01/16/2018 17:45:17
00011 suncat0259 pw.x -in pw.inp   Done                     01/16/2018 17:45:17
00012 suncat0259 pw.x -in pw.inp   Done                     01/16/2018 17:45:17
00013 suncat0259 pw.x -in pw.inp   Done                     01/16/2018 17:45:17
00014 suncat0259 pw.x -in pw.inp   Done                     01/16/2018 17:45:17
00015 suncat0259 pw.x -in pw.inp   Done                     01/16/2018 17:45:17
00016 suncat0258 pw.x -in pw.inp   Done                     01/16/2018 17:45:17
00017 suncat0258 pw.x -in pw.inp   Done                     01/16/2018 17:45:17
00018 suncat0258 pw.x -in pw.inp   Done                     01/16/2018 17:45:17
00019 suncat0258 pw.x -in pw.inp   Done                     01/16/2018 17:45:17
00020 suncat0258 pw.x -in pw.inp   Done                     01/16/2018 17:45:17
00021 suncat0258 pw.x -in pw.inp   Done                     01/16/2018 17:45:17
00022 suncat0258 pw.x -in pw.inp   Done                     01/16/2018 17:45:17
00023 suncat0258 pw.x -in pw.inp   Done                     01/16/2018 17:45:17
00024 suncat0256 pw.x -in pw.inp   Done                     01/16/2018 17:45:17
00025 suncat0256 pw.x -in pw.inp   Done                     01/16/2018 17:45:17
00026 suncat0256 pw.x -in pw.inp   Done                     01/16/2018 17:45:17
00027 suncat0256 pw.x -in pw.inp   Done                     01/16/2018 17:45:17
00028 suncat0256 pw.x -in pw.inp   Done                     01/16/2018 17:45:17
00029 suncat0256 pw.x -in pw.inp   Done                     01/16/2018 17:45:17
00030 suncat0256 pw.x -in pw.inp   Done                     01/16/2018 17:45:17
00031 suncat0256 pw.x -in pw.inp   Done                     01/16/2018 17:45:17