     Program PWSCF v.5.1rc2 (svn rev. 11289) starts on 16Apr2018 at  9:56:41

     Current dimensions of program PWSCF are:
     Max number of different atomic species (ntypx) = 10
     Max number of k-points (npk) =  40000
     Max angular momentum in pseudopotentials (lmaxx) =  3
     Presently stress not available with electric field

     IMPORTANT: XC functional enforced from input :
     Exchange-correlation      = BEEF-VDW ( 1  4 27 13 2)
     Any further DFT definition will be discarded
     Please, verify this is what you really want

     Subspace diagonalization in iterative solution of the eigenvalue problem:
     a serial algorithm will be used

     bravais-lattice index     =            0
     lattice parameter (alat)  =       1.8897  a.u.
     unit-cell volume          =    5174.6160 (a.u.)^3
     number of atoms/cell      =           14
     number of atomic types    =            3
     number of electrons       =       233.00
     number of Kohn-Sham states=          126
     kinetic-energy cutoff     =      36.7493  Ry
     charge density cutoff     =     367.4932  Ry
     convergence threshold     =      1.0E-05
     mixing beta               =       0.3000
     number of iterations used =           10  plain     mixing
     Exchange-correlation      = BEEF-VDW ( 1  4 27 13 2)
     nstep                     =           50

     celldm(1)=   1.889726  celldm(2)=   0.000000  celldm(3)=   0.000000
     celldm(4)=   0.000000  celldm(5)=   0.000000  celldm(6)=   0.000000

     crystal axes: (cart. coord. in units of alat)
               a(1) = (   5.966546   0.000000   0.000000 )
               a(2) = (   2.983273   5.167181   0.000000 )
               a(3) = (   0.000000   0.000000  24.871665 )

     reciprocal axes: (cart. coord. in units 2 pi/alat)
               b(1) = (  0.167601 -0.096765  0.000000 )
               b(2) = (  0.000000  0.193529  0.000000 )
               b(3) = (  0.000000  0.000000  0.040206 )

     PseudoPot. # 1 for Ag read from file:
     /u/if/mamunm/psp/gbrv1.5pbe/Ag.UPF
     MD5 check sum: d66d668201baa78d5eb5b04ef7011058
     Pseudo is Ultrasoft + core correction, Zval = 19.0
     Generated by new atomic code, or converted to UPF format
     Using radial grid of  887 points,  6 beta functions with:
                l(1) =   0
                l(2) =   0
                l(3) =   1
                l(4) =   1
                l(5) =   2
                l(6) =   2
     Q(r) pseudized with  6 coefficients,  rinner =    1.300   1.300   1.300
                                                       1.300   1.300

     PseudoPot. # 2 for C  read from file:
     /u/if/mamunm/psp/gbrv1.5pbe/C.UPF
     MD5 check sum: d1aef80898a10debaa0f26306b886e00
     Pseudo is Ultrasoft + core correction, Zval =  4.0
     Generated by new atomic code, or converted to UPF format
     Using radial grid of  721 points,  4 beta functions with:
                l(1) =   0
                l(2) =   0
                l(3) =   1
                l(4) =   1
     Q(r) pseudized with  8 coefficients,  rinner =    1.100   1.100   1.100

     PseudoPot. # 3 for H  read from file:
     /u/if/mamunm/psp/gbrv1.5pbe/H.UPF
     MD5 check sum: 761ae9a214b05c3daf00ab9f6b793d6f
     Pseudo is Ultrasoft, Zval =  1.0
     Generated by new atomic code, or converted to UPF format
     Using radial grid of  615 points,  2 beta functions with:
                l(1) =   0
                l(2) =   0
     Q(r) pseudized with  8 coefficients,  rinner =    0.700

     vdW kernel table read from file vdW_kernel_table
     MD5 check sum: 095c7af220d748ca6e76c0b4c6cfb241

     atomic species   valence    mass     pseudopotential
        Ag1           19.00   107.86820     Ag( 1.00)
        C1             4.00    12.01100     C ( 1.00)
        H1             1.00     1.00800     H ( 1.00)

     No symmetry found

   Cartesian axes

     site n.     atom                  positions (alat units)
         1           Ag1 tau(   1) = (   1.4916366   0.8611968  10.0000000  )
         2           Ag1 tau(   2) = (   4.4749098   0.8611968  10.0000000  )
         3           Ag1 tau(   3) = (   2.9832732   3.4447871  10.0000000  )
         4           Ag1 tau(   4) = (   5.9665464   3.4447871  10.0000000  )
         5           Ag1 tau(   5) = (   5.9665464   1.7223936  12.4358324  )
         6           Ag1 tau(   6) = (   2.9832732   1.7223936  12.4358324  )
         7           Ag1 tau(   7) = (   7.4581830   4.3059839  12.4358324  )
         8           Ag1 tau(   8) = (   4.4749098   4.3059839  12.4358324  )
         9           Ag1 tau(   9) = (   0.0000000   0.0000000  14.8716647  )
        10           Ag1 tau(  10) = (   2.9832732   0.0000000  14.8716647  )
        11           Ag1 tau(  11) = (   1.4916366   2.5835904  14.8716647  )
        12           Ag1 tau(  12) = (   4.4749098   2.5835904  14.8716647  )
        13           C1  tau(  13) = (   0.0000000   0.0000000  16.7501647  )
        14           H1  tau(  14) = (   0.0000000   0.0000000  17.8501647  )

     number of k points=    20  Fermi-Dirac smearing, width (Ry)=  0.0110
                       cart. coord. in units 2pi/alat
        k(    1) = (   0.0000000   0.0000000   0.0000000), wk =   0.0555556
        k(    2) = (   0.0000000   0.0322549   0.0000000), wk =   0.1111111
        k(    3) = (   0.0000000   0.0645097   0.0000000), wk =   0.1111111
        k(    4) = (   0.0000000  -0.0967646   0.0000000), wk =   0.0555556
        k(    5) = (   0.0279335  -0.0161274   0.0000000), wk =   0.1111111
        k(    6) = (   0.0279335   0.0161274   0.0000000), wk =   0.1111111
        k(    7) = (   0.0279335   0.0483823   0.0000000), wk =   0.1111111
        k(    8) = (   0.0279335  -0.1128920   0.0000000), wk =   0.1111111
        k(    9) = (   0.0279335  -0.0806371   0.0000000), wk =   0.1111111
        k(   10) = (   0.0279335  -0.0483823   0.0000000), wk =   0.1111111
        k(   11) = (   0.0558670  -0.0322549   0.0000000), wk =   0.1111111
        k(   12) = (   0.0558670   0.0000000   0.0000000), wk =   0.1111111
        k(   13) = (   0.0558670   0.0322549   0.0000000), wk =   0.1111111
        k(   14) = (   0.0558670  -0.1290194   0.0000000), wk =   0.1111111
        k(   15) = (   0.0558670  -0.0967646   0.0000000), wk =   0.1111111
        k(   16) = (   0.0558670  -0.0645097   0.0000000), wk =   0.1111111
        k(   17) = (  -0.0838006   0.0483823   0.0000000), wk =   0.0555556
        k(   18) = (  -0.0838006   0.0806371   0.0000000), wk =   0.1111111
        k(   19) = (  -0.0838006   0.1128920   0.0000000), wk =   0.1111111
        k(   20) = (  -0.0838006  -0.0483823   0.0000000), wk =   0.0555556

     Largest allocated arrays     est. size (Mb)     dimensions
     Largest temporary arrays     est. size (Mb)     dimensions

     Initial potential from superposition of free atoms
     Check: negative starting charge=   -0.001921

     starting charge  226.99938, renormalised to  233.00000

     negative rho (up, down):  1.972E-03 0.000E+00

     *
     * You are using vdW-DF for exchange-correlation in this calculation.
     * Please cite the following three references that made this development
     * possible:
     *
     *   M. Dion, H. Rydberg, E. Schroder, D. C. Langreth, and
     *   B. I. Lundqvist, Phys. Rev. Lett. 92, 246401 (2004).
     *
     *   T. Thonhauser, V. R. Cooper, S. Li, A. Puzder, P. Hyldgaard, and
     *   D. C. Langreth, Phys. Rev. B 76, 125112 (2007).
     *
     *   G. Roman-Perez and J. M. Soler, Phys. Rev. Lett. 103, 096102 (2009).
     *
     *
     * If you are using vdW-DF2, please also cite:
     *
     *   K. Lee, E. D. Murray, L. Kong, B. I. Lundqvist, and
     *   D. C. Langreth, Phys. Rev. B 82, 081101(R) (2010).
     *
     *
     * If you are calculating the stress with vdW-DF, please also cite:
     *
     *   R. Sabatini, E. Kucukbenli, B. Kolb, T. Thonhauser, and
     *   S. de Gironcoli, J. Phys.: Condens. Matter 24, 424209 (2012).
     *

     Carrying out vdW-DF run using the following parameters:

     Nqs =      20    Nr_points =    1024   r_max =   100.000
     q_mesh =
               0.00001000     0.04494208     0.09755937     0.15916263
               0.23128650     0.31572767     0.41458969     0.53033537
               0.66584808     0.82450364     1.01025438     1.22772762
               1.48234092     1.78043706     2.12944203     2.53805004
               3.01644009     3.57652955     4.23227104     5.00000000

     Gradients computed in reciprocal space

     Adding external electric field

     Computed dipole along edir(3) :
        Dipole               -1.1321 Ry au,         -2.8775 Debye
        Dipole field         -0.0027 Ry au

        Potential amp.        0.2520 Ry
        Total length         45.8256 bohr

     Starting wfc are  161 randomized atomic wfcs

     Self-consistent Calculation

     iteration #  1     ecut=    36.75 Ry     beta=0.30
     Davidson diagonalization with overlap
     ethr =  1.00E-02,  avg # of iterations =  5.2

[...]

     total energy              =   -3564.24301446 Ry
     Harris-Foulkes estimate   =   -3575.83860317 Ry
     estimated scf accuracy    <      25.14533418 Ry

[...]

     End of self-consistent calculation

          k = 0.0000 0.0000 0.0000 ( 19435 PWs)   bands (ev):

   -91.4450 -90.7071 -90.7008 -90.6979 -90.6979 -90.5291 -90.5153 -90.5107
   -90.5107 -90.4473 -90.4420 -90.4420 -55.1019 -54.8233 -54.8233 -54.2422
   -54.2422 -54.2379 -54.2092 -54.1966 -54.1906 -54.1906 -54.1795 -54.1787
   -54.1787 -54.1579 -54.1579 -54.0652 -54.0652 -54.0589 -54.0148 -54.0065
   -54.0052 -54.0052 -54.0001 -53.9904 -53.9857 -53.9856 -53.9818 -53.9818
   -53.9651 -53.9651 -53.9272 -53.9260 -53.9260 -53.9213 -53.9212 -53.9151
    -9.8118  -5.5822  -5.0967  -4.5083  -4.5083  -4.4371  -4.4028  -4.3888
    -4.3888  -4.3423  -4.3423  -4.2880  -4.2180  -4.1631  -4.1179  -4.1179
    -4.0303  -3.8381  -3.8380  -3.4370  -3.3946  -3.3946  -3.3307  -3.2641
    -3.2641  -3.2084  -3.1790  -3.1790  -3.1064  -3.1064  -3.0494  -3.0411
    -3.0411  -2.6766  -2.6766  -2.5068  -2.5047  -2.5046  -2.4353  -2.4353
    -2.3803  -2.2676  -2.2676  -2.2216  -2.1630  -2.1630  -2.0568  -1.9975
    -1.9975  -1.9250  -1.9030  -1.9030  -1.8620  -1.8620  -1.8019  -1.8019
    -1.7803  -1.7368  -1.7368  -1.6154  -1.6153  -1.6132  -1.5599  -0.8377
     0.8767   0.8767   0.9131   1.8086   2.0054   2.0054   2.5540   2.5812
     2.7858   2.7858   2.9996   3.5929   3.5929   4.8884

[...]

          k =-0.0838 0.0484 0.0000 ( 19500 PWs)   bands (ev):

[...]

     the Fermi energy is     1.3446 ev

!    total energy              =   -3572.29004874 Ry
     Harris-Foulkes estimate   =   -3572.29005077 Ry
     estimated scf accuracy    <       0.00000692 Ry

     The total energy is the sum of the following terms:

     one-electron contribution =  -25988.28797673 Ry
     hartree contribution      =   12986.85575514 Ry
     xc contribution           =    -365.15509973 Ry
     ewald contribution        =    9794.32712263 Ry
     electric field correction =       0.00000254 Ry
     smearing contrib. (-TS)   =      -0.02985260 Ry

     convergence has been achieved in  14 iterations

 BEEF-vdW xc energy contributions
           1 :   -316.304704950929
           2 :    286.273795913238
           3 :   -236.235070248862
           4 :    181.342472773622
           5 :   -135.296434729524
           6 :    105.421198168620
           7 :   -91.3398567029826
           8 :    87.1997257113582
           9 :   -85.7614180006041
          10 :    82.0361397788817
          11 :   -74.8234394650808
          12 :    65.8870782463931
          13 :   -57.8247453231256
          14 :    52.1581927986581
          15 :   -48.6868857862739
          16 :    46.1384815537290
          17 :   -43.3461354721863
          18 :    40.0263782466118
          19 :   -36.7238112550867
          20 :    34.1479083790603
          21 :   -32.5103755728358
          22 :    31.3565692607185
          23 :   -29.9505309444921
          24 :    27.8605370452586
          25 :   -25.2929989006727
          26 :    22.9423026593252
          27 :   -21.4904693200798
          28 :    21.1271828178915
          29 :   -21.4278255351911
          30 :    21.6565315003481
          31 :   -31.6671055505160
          32 :   -23.0220719581875

     Forces acting on atoms (Ry/au):

     negative rho (up, down):  1.963E-03 0.000E+00
     atom    1 type  1   force =    -0.00040732   -0.00023592   -0.00027344
     atom    2 type  1   force =     0.00040701   -0.00023506   -0.00026740
     atom    3 type  1   force =     0.00000017    0.00047069   -0.00026656
     atom    4 type  1   force =     0.00000009    0.00000020    0.00275660
     atom    5 type  1   force =     0.00000260   -0.00230244    0.00204262
     atom    6 type  1   force =    -0.00000251    0.00000056    0.00108420
     atom    7 type  1   force =     0.00199432    0.00114962    0.00204260
     atom    8 type  1   force =    -0.00199411    0.00115252    0.00204299
     atom    9 type  1   force =     0.00000083   -0.00000060   -0.07042702
     atom   10 type  1   force =    -0.00000107   -0.00015083    0.00302377
     atom   11 type  1   force =    -0.00013003    0.00007506    0.00302117
     atom   12 type  1   force =     0.00013015    0.00007622    0.00302379
     atom   13 type  2   force =    -0.00000009    0.00000008    0.05646171
     atom   14 type  3   force =    -0.00000004   -0.00000009   -0.00426503

     Total force =     0.090518     Total SCF correction =     0.018670
     SCF correction compared to forces is large: reduce conv_thr to get better values

     entering subroutine stress ...

     negative rho (up, down):  1.963E-03 0.000E+00
          total   stress  (Ry/bohr**3)                   (kbar)     P=   -7.94
  -0.00007732  -0.00000000  -0.00000000        -11.37     -0.00     -0.00
  -0.00000000  -0.00007732  -0.00000000         -0.00    -11.37     -0.00
  -0.00000000  -0.00000000  -0.00000738         -0.00     -0.00     -1.09

     BFGS Geometry Optimization

     number of scf cycles    =   1
     number of bfgs steps    =   0

     energy   new            =   -3572.2900487410 Ry

     new trust radius        =       0.0704270188 bohr
     new conv_thr            =       0.0000099958 Ry

ATOMIC_POSITIONS (crystal)
Ag1      0.166666667   0.166666667   0.402063960    0   0   0
Ag1      0.666666667   0.166666667   0.402063960    0   0   0
Ag1      0.166666667   0.666666667   0.402063960    0   0   0
Ag1      0.666666667   0.666666667   0.402063960    0   0   0
Ag1      0.833333333   0.333333333   0.500000000    0   0   0
Ag1      0.333333333   0.333333333   0.500000000    0   0   0
Ag1      0.833333333   0.833333333   0.500000000    0   0   0
Ag1      0.333333333   0.833333333   0.500000000    0   0   0
Ag1      0.000000104  -0.000000061   0.596437613
Ag1      0.500007628  -0.000015446   0.598000375
Ag1     -0.000015375   0.500007686   0.598000320
Ag1      0.500007640   0.500007806   0.598000375
C1      -0.000000012   0.000000008   0.674665052
H1       0.000000001  -0.000000009   0.717600046

     Writing output data file calc.save
     Check: negative starting charge=   -0.001921
     NEW-OLD atomic charge density approx. for the potential
     Check: negative starting charge=   -0.001927

[...]

     energy   old            =   -3572.2900487410 Ry
     energy   new            =   -3572.2938300180 Ry

     CASE: energy  _new < energy  _old

[...]

     Total force =     0.016962     Total SCF correction =     0.001296

[...]

     Threshold (ethr) on eigenvalues was too large:
     Diagonalizing with lowered threshold

     Davidson diagonalization with overlap
     ethr =  4.52E-08,  avg # of iterations =  1.0

[...]

     Total force =     0.008042     Total SCF correction =     0.000295

[...]

     number of scf cycles    =  11
     number of bfgs steps    =  10

     energy   old            =   -3572.2985056820 Ry
     energy   new            =   -3572.2985646517 Ry

     CASE: energy  _new < energy  _old

     new trust radius        =       0.0088130845 bohr
     new conv_thr            =       0.0000001000 Ry

ATOMIC_POSITIONS (crystal)
Ag1      0.166666667   0.166666667   0.402063960    0   0   0
Ag1      0.666666667   0.166666667   0.402063960    0   0   0
Ag1      0.166666667   0.666666667   0.402063960    0   0   0
Ag1      0.666666667   0.666666667   0.402063960    0   0   0
Ag1      0.833333333   0.333333333   0.500000000    0   0   0
Ag1      0.333333333   0.333333333   0.500000000    0   0   0
Ag1      0.833333333   0.833333333   0.500000000    0   0   0
Ag1      0.333333333   0.833333333   0.500000000    0   0   0
Ag1     -0.000000180   0.000000082   0.590469817
Ag1      0.500087694  -0.000175002   0.601744659
Ag1     -0.000175098   0.500087542   0.601744671
Ag1      0.500087691   0.500087295   0.601744656
C1      -0.000000173   0.000000106   0.669662820
H1       0.000000055  -0.000000047   0.713781238

     Writing output data file calc.save
     Check: negative starting charge=   -0.001938
     NEW-OLD atomic charge density approx. for the potential
     Check: negative starting charge=   -0.001937

[...]

     Self-consistent Calculation

[...]

     Threshold (ethr) on eigenvalues was too large:
     Diagonalizing with lowered threshold

     Davidson diagonalization with overlap
     ethr =  1.40E-08,  avg # of iterations =  1.0

[...]

     total energy              =   -3572.29857788 Ry
     Harris-Foulkes estimate   =   -3572.29857796 Ry
     estimated scf accuracy    <       0.00000074 Ry

     iteration #  6     ecut=    36.75 Ry     beta=0.30
     Davidson diagonalization with overlap
     ethr =  3.17E-10,  avg # of iterations =  2.0

[...]

     negative rho (up, down):  1.966E-03 0.000E+00

     Adding external electric field

     Computed dipole along edir(3) :
        Dipole               -0.0113 Ry au,         -0.0286 Debye
        Dipole field         -0.0000 Ry au

        Potential amp.        0.0025 Ry
        Total length         45.8256 bohr

     End of self-consistent calculation

[...]

          k = 0.0559-0.0645 0.0000 ( 19479 PWs)   bands (ev):

[...]

          k =-0.0838-0.0484 0.0000 ( 19500 PWs)   bands (ev):

   -91.2147 -90.6989 -90.6973 -90.6954 -90.6778 -90.5351 -90.5134 -90.5115
   -90.5099 -90.4114 -90.4096 -90.4079 -54.8133 -54.6294 -54.6286 -54.2227
   -54.2138 -54.1994 -54.1973 -54.1934 -54.1902 -54.1869 -54.1861 -54.1751
   -54.1741 -54.1638 -54.1538 -54.0567 -54.0442 -54.0380 -54.0197 -54.0165
   -54.0154 -54.0127 -53.9983 -53.9894 -53.9873 -53.9855 -53.9837 -53.9657
   -53.9422 -53.9242 -53.9043 -53.8967 -53.8895 -53.8874 -53.8857 -53.8850
    -9.6689  -5.2013  -4.2316  -4.1578  -4.1441  -4.0899  -4.0229  -3.9950
    -3.9776  -3.8659  -3.7992  -3.7916  -3.7502  -3.7105  -3.6872  -3.6723
    -3.6462  -3.5556  -3.4966  -3.4690  -3.3269  -3.2735  -3.2667  -3.2551
    -3.2155  -3.1776  -3.1558  -3.0209  -2.9739  -2.9605  -2.9098  -2.8905
    -2.8781  -2.8577  -2.7435  -2.7367  -2.7134  -2.6824  -2.6781  -2.6552
    -2.6353  -2.6081  -2.5571  -2.5108  -2.4971  -2.4635  -2.4503  -2.3999
    -2.3717  -2.3648  -2.3556  -2.3164  -2.3113  -2.2551  -2.2142  -2.1581
    -2.1430  -2.0691  -1.9065  -1.8830  -1.8615  -1.7732  -1.7288  -1.4691
    -1.0498   0.0312   0.6997   1.0420   1.0585   1.5004   2.0317   2.3194
     2.9137   2.9537   4.2792   4.4039   4.9565   5.4799

     the Fermi energy is     1.3467 ev

!    total energy              =   -3572.29857794 Ry
     Harris-Foulkes estimate   =   -3572.29857793 Ry
     estimated scf accuracy    <       0.00000005 Ry

     The total energy is the sum of the following terms:

     one-electron contribution =  -25922.79561266 Ry
     hartree contribution      =   12954.41334226 Ry
     xc contribution           =    -365.14549643 Ry
     ewald contribution        =    9761.25795801 Ry
     electric field correction =       0.00000031 Ry
     smearing contrib. (-TS)   =      -0.02876942 Ry

     convergence has been achieved in   6 iterations

 BEEF-vdW xc energy contributions
           1 :   -316.286735806643
           2 :    286.226466366800
           3 :   -236.150173851831
           4 :    181.244515233812
           5 :   -135.228614209867
           6 :    105.411678010656
           7 :   -91.3772471962005
           8 :    87.2391855004492
           9 :   -85.7568978711158
          10 :    81.9741113422601
          11 :   -74.7325353665984
          12 :    65.8172264087644
          13 :   -57.8124388548418
          14 :    52.2033597262956
          15 :   -48.7564024105388
          16 :    46.1917991886985
          17 :   -43.3631591523761
          18 :    40.0170456096409
          19 :   -36.7135270152993
          20 :    34.1529204180433
          21 :   -32.5239099995516
          22 :    31.3563364285829
          23 :   -29.9206486344330
          24 :    27.8092341459048
          25 :   -25.2504748330293
          26 :    22.9395793720752
          27 :   -21.5349229159020
          28 :    21.1937422630989
          29 :   -21.4737338258752
          30 :    21.6494583764979
          31 :   -31.6651586635601
          32 :   -23.0137518221247

     Forces acting on atoms (Ry/au):

     negative rho (up, down):  1.966E-03 0.000E+00
     atom    1 type  1   force =    -0.00029419   -0.00016986   -0.00118354
     atom    2 type  1   force =     0.00029419   -0.00016986   -0.00118355
     atom    3 type  1   force =    -0.00000000    0.00033971   -0.00118354
     atom    4 type  1   force =     0.00000000   -0.00000000    0.00242580
     atom    5 type  1   force =     0.00000001    0.00515802   -0.00138602
     atom    6 type  1   force =    -0.00000001    0.00000000    0.00797788
     atom    7 type  1   force =    -0.00446697   -0.00257902   -0.00138602
     atom    8 type  1   force =     0.00446695   -0.00257900   -0.00138590
     atom    9 type  1   force =     0.00000027   -0.00000016   -0.00036419
     atom   10 type  1   force =    -0.00000027    0.00010724   -0.00060038
     atom   11 type  1   force =     0.00009303   -0.00005370   -0.00060039
     atom   12 type  1   force =    -0.00009301   -0.00005339   -0.00060039
     atom   13 type  2   force =     0.00000003   -0.00000001   -0.00021359
     atom   14 type  3   force =    -0.00000003    0.00000002   -0.00031619

     Total force =     0.001181     Total SCF correction =     0.000524
     SCF correction compared to forces is large: reduce conv_thr to get better values

     entering subroutine stress ...

     negative rho (up, down):  1.966E-03 0.000E+00
          total   stress  (Ry/bohr**3)                   (kbar)     P=   -8.22
  -0.00007214   0.00000000  -0.00000000        -10.61      0.00     -0.00
   0.00000000  -0.00007214   0.00000000          0.00    -10.61      0.00
  -0.00000000   0.00000000  -0.00002343         -0.00      0.00     -3.45

     bfgs converged in  12 scf cycles and  11 bfgs steps
     (criteria: energy <  1.0E+00, force <  1.9E-03)

     End of BFGS Geometry Optimization

     Final energy   =   -3572.2985779358 Ry
Begin final coordinates

ATOMIC_POSITIONS (crystal)
Ag1      0.166666667   0.166666667   0.402063960    0   0   0
Ag1      0.666666667   0.166666667   0.402063960    0   0   0
Ag1      0.166666667   0.666666667   0.402063960    0   0   0
Ag1      0.666666667   0.666666667   0.402063960    0   0   0
Ag1      0.833333333   0.333333333   0.500000000    0   0   0
Ag1      0.333333333   0.333333333   0.500000000    0   0   0
Ag1      0.833333333   0.833333333   0.500000000    0   0   0
Ag1      0.333333333   0.833333333   0.500000000    0   0   0
Ag1     -0.000000180   0.000000082   0.590469817
Ag1      0.500087694  -0.000175002   0.601744659
Ag1     -0.000175098   0.500087542   0.601744671
Ag1      0.500087691   0.500087295   0.601744656
C1      -0.000000173   0.000000106   0.669662820
H1       0.000000055  -0.000000047   0.713781238
End final coordinates

     Writing output data file calc.save

     General routines

     Parallel routines

   This run was terminated on:  11: 6: 3  16Apr2018

   JOB DONE.
Job  /afs/slac/g/suncat/bin/suncat-tsmpirun -x LD_LIBRARY_PATH -wdir /scratch/qe98183_ycbx8 pw.x -npool 4 -in pw.inp

TID   HOST_NAME   COMMAND_LINE            STATUS            TERMINATION_TIME
00000 suncat0086 pw.x -npool 4 -i  Done                     04/16/2018 11:06:03
00001 suncat0086 pw.x -npool 4 -i  Done                     04/16/2018 11:06:03
00002 suncat0086 pw.x -npool 4 -i  Done                     04/16/2018 11:06:03
00003 suncat0086 pw.x -npool 4 -i  Done                     04/16/2018 11:06:03
00004 suncat0086 pw.x -npool 4 -i  Done                     04/16/2018 11:06:03
00005 suncat0086 pw.x -npool 4 -i  Done                     04/16/2018 11:06:03
00006 suncat0086 pw.x -npool 4 -i  Done                     04/16/2018 11:06:03
00007 suncat0086 pw.x -npool 4 -i  Done                     04/16/2018 11:06:03
00008 suncat0035 pw.x -npool 4 -i  Done                     04/16/2018 11:06:03
00009 suncat0035 pw.x -npool 4 -i  Done                     04/16/2018 11:06:03
00010 suncat0035 pw.x -npool 4 -i  Done                     04/16/2018 11:06:03
00011 suncat0035 pw.x -npool 4 -i  Done                     04/16/2018 11:06:03
00012 suncat0035 pw.x -npool 4 -i  Done                     04/16/2018 11:06:03
00013 suncat0035 pw.x -npool 4 -i  Done                     04/16/2018 11:06:03
00014 suncat0035 pw.x -npool 4 -i  Done                     04/16/2018 11:06:03
00015 suncat0035 pw.x -npool 4 -i  Done                     04/16/2018 11:06:03
00016 suncat0016 pw.x -npool 4 -i  Done                     04/16/2018 11:06:03
00017 suncat0016 pw.x -npool 4 -i  Done                     04/16/2018 11:06:03
00018 suncat0016 pw.x -npool 4 -i  Done                     04/16/2018 11:06:03
00019 suncat0016 pw.x -npool 4 -i  Done                     04/16/2018 11:06:03
00020 suncat0016 pw.x -npool 4 -i  Done                     04/16/2018 11:06:03
00021 suncat0016 pw.x -npool 4 -i  Done                     04/16/2018 11:06:03
00022 suncat0016 pw.x -npool 4 -i  Done                     04/16/2018 11:06:03
00023 suncat0016 pw.x -npool 4 -i  Done                     04/16/2018 11:06:03
00024 suncat0014 pw.x -npool 4 -i  Done                     04/16/2018 11:06:03
00025 suncat0014 pw.x -npool 4 -i  Done                     04/16/2018 11:06:03
00026 suncat0014 pw.x -npool 4 -i  Done                     04/16/2018 11:06:03
00027 suncat0014 pw.x -npool 4 -i  Done                     04/16/2018 11:06:03
00028 suncat0014 pw.x -npool 4 -i  Done                     04/16/2018 11:06:03
00029 suncat0014 pw.x -npool 4 -i  Done                     04/16/2018 11:06:03
00030 suncat0014 pw.x -npool 4 -i  Done                     04/16/2018 11:06:03
00031 suncat0014 pw.x -npool 4 -i  Done                     04/16/2018 11:06:03