     Program PWSCF v.5.1rc2 (svn rev. 11289) starts on 16Apr2018 at 21:18:31

     Current dimensions of program PWSCF are:
     Max number of different atomic species (ntypx) = 10
     Max number of k-points (npk) =  40000
     Max angular momentum in pseudopotentials (lmaxx) =  3
     Presently stress not available with electric field

     IMPORTANT: XC functional enforced from input :
     Exchange-correlation      = BEEF-VDW ( 1  4 27 13 2)
     Any further DFT definition will be discarded
     Please, verify this is what you really want

     Subspace diagonalization in iterative solution of the eigenvalue problem:
     a serial algorithm will be used

     bravais-lattice index     =            0
     lattice parameter (alat)  =       1.8897  a.u.
     unit-cell volume          =    3724.3394 (a.u.)^3
     number of atoms/cell      =           14
     number of atomic types    =            3
     number of electrons       =       173.00
     number of Kohn-Sham states=           96
     kinetic-energy cutoff     =      36.7493  Ry
     charge density cutoff     =     367.4932  Ry
     convergence threshold     =      1.0E-05
     mixing beta               =       0.3000
     number of iterations used =           10  plain     mixing
     Exchange-correlation      = BEEF-VDW ( 1  4 27 13 2)
     nstep                     =           50

     celldm(1)=   1.889726  celldm(2)=   0.000000  celldm(3)=   0.000000
     celldm(4)=   0.000000  celldm(5)=   0.000000  celldm(6)=   0.000000

     crystal axes: (cart. coord. in units of alat)
               a(1) = (   5.132588   0.000000   0.000000 )
               a(2) = (   2.566294   4.444952   0.000000 )
               a(3) = (   0.000000   0.000000  24.190741 )

     reciprocal axes: (cart. coord. in units 2 pi/alat)
               b(1) = (  0.194833 -0.112487  0.000000 )
               b(2) = (  0.000000  0.224974  0.000000 )
               b(3) = (  0.000000  0.000000  0.041338 )

     PseudoPot. # 1 for Cr read from file:
     /u/if/mamunm/psp/gbrv1.5pbe/Cr.UPF
     MD5 check sum: 0d52af634a40206e4dee301ad30da4bf
     Pseudo is Ultrasoft + core correction, Zval = 14.0
     Generated by new atomic code, or converted to UPF format
     Using radial grid of  857 points,  6 beta functions with:
                l(1) =   0
                l(2) =   0
                l(3) =   1
                l(4) =   1
                l(5) =   2
                l(6) =   2
     Q(r) pseudized with  8 coefficients,  rinner =    0.950   0.950   0.950
                                                       0.950   0.950

     PseudoPot. # 2 for C  read from file:
     /u/if/mamunm/psp/gbrv1.5pbe/C.UPF
     MD5 check sum: d1aef80898a10debaa0f26306b886e00
     Pseudo is Ultrasoft + core correction, Zval =  4.0
     Generated by new atomic code, or converted to UPF format
     Using radial grid of  721 points,  4 beta functions with:
                l(1) =   0
                l(2) =   0
                l(3) =   1
                l(4) =   1
     Q(r) pseudized with  8 coefficients,  rinner =    1.100   1.100   1.100

     PseudoPot. # 3 for H  read from file:
     /u/if/mamunm/psp/gbrv1.5pbe/H.UPF
     MD5 check sum: 761ae9a214b05c3daf00ab9f6b793d6f
     Pseudo is Ultrasoft, Zval =  1.0
     Generated by new atomic code, or converted to UPF format
     Using radial grid of  615 points,  2 beta functions with:
                l(1) =   0
                l(2) =   0
     Q(r) pseudized with  8 coefficients,  rinner =    0.700

     vdW kernel table read from file vdW_kernel_table
     MD5 check sum: 095c7af220d748ca6e76c0b4c6cfb241

     atomic species   valence    mass     pseudopotential
        Cr1           14.00    51.99610     Cr( 1.00)
        C1             4.00    12.01100     C ( 1.00)
        H1             1.00     1.00800     H ( 1.00)

     No symmetry found

   Cartesian axes

     site n.     atom                  positions (alat units)
         1           Cr1 tau(   1) = (   1.2831471   0.7408253  10.0000000  )
         2           Cr1 tau(   2) = (   3.8494412   0.7408253  10.0000000  )
         3           Cr1 tau(   3) = (   2.5662941   2.9633012  10.0000000  )
         4           Cr1 tau(   4) = (   5.1325882   2.9633012  10.0000000  )
         5           Cr1 tau(   5) = (   5.1325882   1.4816506  12.0953704  )
         6           Cr1 tau(   6) = (   2.5662941   1.4816506  12.0953704  )
         7           Cr1 tau(   7) = (   6.4157353   3.7041265  12.0953704  )
         8           Cr1 tau(   8) = (   3.8494412   3.7041265  12.0953704  )
         9           Cr1 tau(   9) = (   0.0000000   0.0000000  14.1907408  )
        10           Cr1 tau(  10) = (   2.5662941   0.0000000  14.1907408  )
        11           Cr1 tau(  11) = (   1.2831471   2.2224759  14.1907408  )
        12           Cr1 tau(  12) = (   3.8494412   2.2224759  14.1907408  )
        13           C1  tau(  13) = (   0.0000000   0.0000000  16.0182408  )
        14           H1  tau(  14) = (   0.0000000   0.0000000  17.1182408  )

     number of k points=    20  Fermi-Dirac smearing, width (Ry)=  0.0110
                       cart. coord. in units 2pi/alat
        k(    1) = (   0.0000000   0.0000000   0.0000000), wk =   0.0555556
        k(    2) = (   0.0000000   0.0374957   0.0000000), wk =   0.1111111
        k(    3) = (   0.0000000   0.0749914   0.0000000), wk =   0.1111111
        k(    4) = (   0.0000000  -0.1124872   0.0000000), wk =   0.0555556
        k(    5) = (   0.0324722  -0.0187479   0.0000000), wk =   0.1111111
        k(    6) = (   0.0324722   0.0187479   0.0000000), wk =   0.1111111
        k(    7) = (   0.0324722   0.0562436   0.0000000), wk =   0.1111111
        k(    8) = (   0.0324722  -0.1312350   0.0000000), wk =   0.1111111
        k(    9) = (   0.0324722  -0.0937393   0.0000000), wk =   0.1111111
        k(   10) = (   0.0324722  -0.0562436   0.0000000), wk =   0.1111111
        k(   11) = (   0.0649445  -0.0374957   0.0000000), wk =   0.1111111
        k(   12) = (   0.0649445   0.0000000   0.0000000), wk =   0.1111111
        k(   13) = (   0.0649445   0.0374957   0.0000000), wk =   0.1111111
        k(   14) = (   0.0649445  -0.1499829   0.0000000), wk =   0.1111111
        k(   15) = (   0.0649445  -0.1124872   0.0000000), wk =   0.1111111
        k(   16) = (   0.0649445  -0.0749914   0.0000000), wk =   0.1111111
        k(   17) = (  -0.0974167   0.0562436   0.0000000), wk =   0.0555556
        k(   18) = (  -0.0974167   0.0937393   0.0000000), wk =   0.1111111
        k(   19) = (  -0.0974167   0.1312350   0.0000000), wk =   0.1111111
        k(   20) = (  -0.0974167  -0.0562436   0.0000000), wk =   0.0555556

     Largest allocated arrays     est. size (Mb)     dimensions
     Largest temporary arrays     est. size (Mb)     dimensions

     Check: negative/imaginary core charge=   -0.000004    0.000000

     Initial potential from superposition of free atoms
     Check: negative starting charge=   -0.014767

     starting charge  160.99977, renormalised to  173.00000

     negative rho (up, down):  1.587E-02 0.000E+00

     *
     * You are using vdW-DF for exchange-correlation in this calculation.
     * Please cite the following three references that made this development
     * possible:
     *
     *   M. Dion, H. Rydberg, E. Schroder, D. C. Langreth, and
     *   B. I. Lundqvist, Phys. Rev. Lett. 92, 246401 (2004).
     *
     *   T. Thonhauser, V. R. Cooper, S. Li, A. Puzder, P. Hyldgaard, and
     *   D. C. Langreth, Phys. Rev. B 76, 125112 (2007).
     *
     *   G. Roman-Perez and J. M. Soler, Phys. Rev. Lett. 103, 096102 (2009).
     *
     *
     * If you are using vdW-DF2, please also cite:
     *
     *   K. Lee, E. D. Murray, L. Kong, B. I. Lundqvist, and
     *   D. C. Langreth, Phys. Rev. B 82, 081101(R) (2010).
     *
     *
     * If you are calculating the stress with vdW-DF, please also cite:
     *
     *   R. Sabatini, E. Kucukbenli, B. Kolb, T. Thonhauser, and
     *   S. de Gironcoli, J. Phys.: Condens. Matter 24, 424209 (2012).
     *

     Carrying out vdW-DF run using the following parameters:

     Nqs =      20    Nr_points =    1024   r_max =   100.000
     q_mesh =
               0.00001000     0.04494208     0.09755937     0.15916263
               0.23128650     0.31572767     0.41458969     0.53033537
               0.66584808     0.82450364     1.01025438     1.22772762
               1.48234092     1.78043706     2.12944203     2.53805004
               3.01644009     3.57652955     4.23227104     5.00000000

     Gradients computed in reciprocal space

     Adding external electric field

     Computed dipole along edir(3) :
        Dipole               -2.9172 Ry au,         -7.4149 Debye
        Dipole field         -0.0098 Ry au

        Potential amp.        0.8774 Ry
        Total length         44.5710 bohr

     Starting wfc are  125 randomized atomic wfcs

     Self-consistent Calculation

     iteration #  1     ecut=    36.75 Ry     beta=0.30
     Davidson diagonalization with overlap
     ethr =  1.00E-02,  avg # of iterations =  6.5

[...]

     total energy              =   -1948.93799567 Ry
     Harris-Foulkes estimate   =   -2130.45997690 Ry
     estimated scf accuracy    <     377.63678174 Ry

[...]

     End of self-consistent calculation

          k = 0.0000 0.0000 0.0000 ( 14081 PWs)   bands (ev):

   -70.1826 -70.1061 -70.0464 -70.0434 -70.0428 -70.0216 -70.0020 -69.9913
   -69.9899 -69.9120 -69.9112 -69.9103 -41.7649 -41.7644 -41.7498 -41.7294
   -41.7016 -41.7014 -41.6727 -41.5780 -41.5776 -41.5698 -41.4609 -41.4201
   -41.4052 -41.4047 -41.3119 -41.2982 -41.2976 -41.2656 -41.2465 -41.2460
   -41.1991 -41.1764 -41.1677 -41.1667 -41.1424 -41.1422 -41.1278 -41.0799
   -41.0798 -41.0577 -41.0540 -41.0534 -41.0220 -41.0219 -40.9230 -40.9229
    -9.2531  -5.1774  -3.7166  -2.8375  -2.3351  -2.1270  -2.1268  -2.0805
    -1.7809  -1.7807  -1.6464  -1.3792  -1.3791  -1.3282  -1.2498  -1.2496
    -1.1997  -0.7205  -0.7203  -0.3675   0.3734   0.3736   0.6070   0.6809
     0.8727   1.0442   1.0444   1.1441   1.1442   1.2942   1.3185   1.3186
     1.3787   1.3790   1.3961   1.4890   1.4890   1.5190   1.5193   1.8596
     2.1557   2.4001   2.4004   2.4390   2.7071   2.7072   2.7111   2.8572

[...]

          k =-0.0974 0.0562 0.0000 ( 14010 PWs)   bands (ev):

[...]

     the Fermi energy is     1.5607 ev

!    total energy              =   -2127.59957724 Ry
     Harris-Foulkes estimate   =   -2127.59958100 Ry
     estimated scf accuracy    <       0.00000358 Ry

     The total energy is the sum of the following terms:

     one-electron contribution =  -19789.74541840 Ry
     hartree contribution      =    9889.51235026 Ry
     xc contribution           =    -283.36261607 Ry
     ewald contribution        =    8056.12620862 Ry
     electric field correction =       0.00010895 Ry
     smearing contrib. (-TS)   =      -0.13021059 Ry

     convergence has been achieved in  40 iterations

 BEEF-vdW xc energy contributions
           1 :   -245.213613714804
           2 :    220.703046000179
           3 :   -179.831792356101
           4 :    134.921832584605
           5 :   -97.1026546331811
           6 :    72.2967070228856
           7 :   -60.1533390885426
           8 :    55.9225115503962
           9 :   -53.8396701184184
          10 :    50.0875539545172
          11 :   -43.9955316293493
          12 :    37.2943320413025
          13 :   -32.2849070859301
          14 :    30.1547566804123
          15 :   -30.3450424134366
          16 :    31.1221754646494
          17 :   -30.8006902673096
          18 :    28.7714818625009
          19 :   -25.7276188551764
          20 :    23.0381590144758
          21 :   -21.7627022105292
          22 :    21.9774380754058
          23 :   -22.8162460871915
          24 :    23.1244228683767
          25 :   -22.2363828370748
          26 :    20.3582874589898
          27 :   -18.3503466778747
          28 :    17.1090121019094
          29 :   -16.9829490613415
          30 :    17.5896266002892
          31 :   -24.3677080245604
          32 :   -17.5185043004301

     Forces acting on atoms (Ry/au):

     negative rho (up, down):  1.460E-02 0.000E+00
     atom    1 type  1   force =     0.00079498    0.00047376   -0.00010079
     atom    2 type  1   force =    -0.00080003    0.00047618   -0.00012030
     atom    3 type  1   force =     0.00000883   -0.00093520   -0.00012484
     atom    4 type  1   force =    -0.00000506   -0.00000367    0.00005682
     atom    5 type  1   force =     0.00000968    0.00422408   -0.00283953
     atom    6 type  1   force =    -0.00000354    0.00001995    0.01620845
     atom    7 type  1   force =    -0.00365543   -0.00213107   -0.00284798
     atom    8 type  1   force =     0.00365229   -0.00212581   -0.00284640
     atom    9 type  1   force =     0.00000801   -0.00000476    0.10281959
     atom   10 type  1   force =    -0.00000840    0.00235466   -0.00034710
     atom   11 type  1   force =     0.00202569   -0.00118231   -0.00029416
     atom   12 type  1   force =    -0.00202864   -0.00117236   -0.00034215
     atom   13 type  2   force =     0.00000045    0.00000536   -0.09924811
     atom   14 type  3   force =     0.00000116    0.00000117   -0.00997350

     Total force =     0.143312     Total SCF correction =     0.003231

     entering subroutine stress ...

     negative rho (up, down):  1.460E-02 0.000E+00
          total   stress  (Ry/bohr**3)                   (kbar)     P=  -27.99
  -0.00023008   0.00000001  -0.00000001        -33.85      0.00     -0.00
   0.00000001  -0.00023012  -0.00000004          0.00    -33.85     -0.01
  -0.00000001  -0.00000004  -0.00011059         -0.00     -0.01    -16.27

     BFGS Geometry Optimization

     number of scf cycles    =   1
     number of bfgs steps    =   0

     energy   new            =   -2127.5995772421 Ry

     new trust radius        =       0.1028195930 bohr
     new conv_thr            =       0.0000099958 Ry

ATOMIC_POSITIONS (crystal)
Cr1      0.166666667   0.166666667   0.413381306    0   0   0
Cr1      0.666666667   0.166666667   0.413381306    0   0   0
Cr1      0.166666667   0.666666667   0.413381306    0   0   0
Cr1      0.666666667   0.666666667   0.413381306    0   0   0
Cr1      0.833333333   0.333333333   0.500000000    0   0   0
Cr1      0.333333333   0.333333333   0.500000000    0   0   0
Cr1      0.833333333   0.833333333   0.500000000    0   0   0
Cr1      0.333333333   0.833333333   0.500000000    0   0   0
Cr1      0.000001110  -0.000000567   0.588867893
Cr1      0.499858971   0.000280326   0.586611101
Cr1      0.000279229   0.499859245   0.586612260
Cr1      0.499860630   0.499860430   0.586611210
C1      -0.000000272   0.000000638   0.659993056
H1       0.000000050   0.000000139   0.707417899

     Writing output data file calc.save
     Check: negative starting charge=   -0.014767
     NEW-OLD atomic charge density approx. for the potential

     Check: negative/imaginary core charge=   -0.000004    0.000000
     Check: negative starting charge=   -0.014812

[...]

     energy   old            =   -2127.5995772421 Ry
     energy   new            =   -2127.6089896353 Ry

     CASE: energy  _new < energy  _old

[...]

     WARNING: bfgs curvature condition failed, Theta= 0.860
     new trust radius        =       0.0058893400 bohr
     new conv_thr            =       0.0000001000 Ry

[...]

     Total force =     0.004359     Total SCF correction =     0.000226

[...]

     number of scf cycles    =   9
     number of bfgs steps    =   8

     energy   old            =   -2127.6127359713 Ry
     energy   new            =   -2127.6129149055 Ry

     CASE: energy  _new < energy  _old

     new trust radius        =       0.0298147839 bohr
     new conv_thr            =       0.0000001000 Ry

ATOMIC_POSITIONS (crystal)
Cr1      0.166666667   0.166666667   0.413381306    0   0   0
Cr1      0.666666667   0.166666667   0.413381306    0   0   0
Cr1      0.166666667   0.666666667   0.413381306    0   0   0
Cr1      0.666666667   0.666666667   0.413381306    0   0   0
Cr1      0.833333333   0.333333333   0.500000000    0   0   0
Cr1      0.333333333   0.333333333   0.500000000    0   0   0
Cr1      0.833333333   0.833333333   0.500000000    0   0   0
Cr1      0.333333333   0.833333333   0.500000000    0   0   0
Cr1     -0.000001800  -0.000000170   0.587997162
Cr1      0.499370655   0.001263809   0.585447314
Cr1      0.001261657   0.499368250   0.585447681
Cr1      0.499369323   0.499367067   0.585447458
C1       0.000000943  -0.000000343   0.658602954
H1      -0.000000269   0.000001212   0.703776130

     Writing output data file calc.save
     Check: negative starting charge=   -0.014565
     NEW-OLD atomic charge density approx. for the potential

     Check: negative/imaginary core charge=   -0.000004    0.000000
     Check: negative starting charge=   -0.014775

[...]

     Self-consistent Calculation

[...]

     total energy              =   -2127.61304257 Ry
     Harris-Foulkes estimate   =   -2127.61304258 Ry
     estimated scf accuracy    <       0.00000016 Ry

     iteration # 32     ecut=    36.75 Ry     beta=0.30
     Davidson diagonalization with overlap
     ethr =  9.01E-11,  avg # of iterations =  4.5

[...]

     negative rho (up, down):  1.476E-02 0.000E+00

     Adding external electric field

     Computed dipole along edir(3) :
        Dipole                0.1812 Ry au,          0.4605 Debye
        Dipole field          0.0006 Ry au

        Potential amp.       -0.0545 Ry
        Total length         44.5710 bohr

     End of self-consistent calculation

[...]

          k = 0.0649-0.0750 0.0000 ( 13990 PWs)   bands (ev):

[...]

          k =-0.0974-0.0562 0.0000 ( 14010 PWs)   bands (ev):

   -70.1101 -70.0828 -70.0450 -70.0270 -70.0247 -70.0030 -69.9788 -69.9557
   -69.9530 -69.9447 -69.9076 -69.9061 -41.6449 -41.6388 -41.6278 -41.6154
   -41.5771 -41.5627 -41.5017 -41.4938 -41.4743 -41.4710 -41.4415 -41.4387
   -41.3587 -41.3231 -41.3157 -41.3091 -41.2939 -41.2899 -41.2706 -41.2474
   -41.2354 -41.2320 -41.2235 -41.2205 -41.2009 -41.1848 -41.1565 -41.1399
   -41.1248 -41.1123 -41.0985 -41.0848 -41.0539 -41.0430 -40.9857 -40.9829
    -9.1834  -3.7202  -3.2991  -2.9386  -2.0096  -1.7487  -1.4171  -1.3021
    -1.2745  -1.2598  -1.2010  -1.0528  -0.8133  -0.7861  -0.5441  -0.5101
    -0.4511  -0.3994  -0.3353  -0.2207   0.0716   0.1161   0.1888   0.1908
     0.2986   0.3263   0.5486   0.6753   0.7131   0.7951   0.8169   0.9172
     0.9813   1.0363   1.0887   1.1010   1.2392   1.2877   1.3147   1.4957
     1.6442   1.6920   2.0178   2.0863   2.1750   2.2234   2.2400   2.3275

     the Fermi energy is     1.5668 ev

!    total energy              =   -2127.61304252 Ry
     Harris-Foulkes estimate   =   -2127.61304422 Ry
     estimated scf accuracy    <       0.00000005 Ry

     The total energy is the sum of the following terms:

     one-electron contribution =  -19852.46175583 Ry
     hartree contribution      =    9920.94612222 Ry
     xc contribution           =    -283.48829703 Ry
     ewald contribution        =    8087.52040743 Ry
     electric field correction =       0.00011076 Ry
     smearing contrib. (-TS)   =      -0.12963007 Ry

     convergence has been achieved in  32 iterations

 BEEF-vdW xc energy contributions
           1 :   -245.338045882007
           2 :    220.852608359146
           3 :   -180.009798305437
           4 :    135.101898880028
           5 :   -97.2425023921504
           6 :    72.3650960378576
           7 :   -60.1516956808323
           8 :    55.8860987893611
           9 :   -53.8169360080431
          10 :    50.1115878901730
          11 :   -44.0664512443277
          12 :    37.3830579949945
          13 :   -32.3534173868948
          14 :    30.1779806623928
          15 :   -30.3217427166123
          16 :    31.0708658163548
          17 :   -30.7459765690808
          18 :    28.7300902163179
          19 :   -25.7012342967454
          20 :    23.0163178516433
          21 :   -21.7335443371974
          22 :    21.9390550856211
          23 :   -22.7803448489606
          24 :    23.1090401760601
          25 :   -22.2523059065827
          26 :    20.3986710519523
          27 :   -18.3915818366929
          28 :    17.1223509180389
          29 :   -16.9483729940978
          30 :    17.5033022809316
          31 :   -24.3757354617132
          32 :   -17.5311192319180

     Forces acting on atoms (Ry/au):

     negative rho (up, down):  1.476E-02 0.000E+00
     atom    1 type  1   force =     0.00090965    0.00052401    0.00081273
     atom    2 type  1   force =    -0.00090984    0.00052394    0.00081392
     atom    3 type  1   force =     0.00000000   -0.00104945    0.00081546
     atom    4 type  1   force =     0.00000001    0.00000045   -0.00000407
     atom    5 type  1   force =     0.00000124    0.00113971   -0.00431529
     atom    6 type  1   force =    -0.00000186    0.00000159    0.01012151
     atom    7 type  1   force =    -0.00098625   -0.00057099   -0.00431920
     atom    8 type  1   force =     0.00098544   -0.00056966   -0.00431617
     atom    9 type  1   force =     0.00000517   -0.00000219   -0.00116595
     atom   10 type  1   force =    -0.00000366   -0.00042317    0.00128449
     atom   11 type  1   force =    -0.00036460    0.00021042    0.00129041
     atom   12 type  1   force =     0.00036414    0.00021544    0.00129142
     atom   13 type  2   force =     0.00000015    0.00000037   -0.00115178
     atom   14 type  3   force =     0.00000040   -0.00000048   -0.00115746

     Total force =     0.003089     Total SCF correction =     0.000773
     SCF correction compared to forces is large: reduce conv_thr to get better values

     entering subroutine stress ...

     negative rho (up, down):  1.476E-02 0.000E+00
          total   stress  (Ry/bohr**3)                   (kbar)     P=  -22.84
  -0.00022578   0.00000000   0.00000000        -33.21      0.00      0.00
   0.00000000  -0.00022578  -0.00000000          0.00    -33.21     -0.00
   0.00000000  -0.00000000  -0.00001427          0.00     -0.00     -2.10

     bfgs converged in  10 scf cycles and   9 bfgs steps
     (criteria: energy <  1.0E+00, force <  1.9E-03)

     End of BFGS Geometry Optimization

     Final energy   =   -2127.6130425152 Ry
Begin final coordinates

ATOMIC_POSITIONS (crystal)
Cr1      0.166666667   0.166666667   0.413381306    0   0   0
Cr1      0.666666667   0.166666667   0.413381306    0   0   0
Cr1      0.166666667   0.666666667   0.413381306    0   0   0
Cr1      0.666666667   0.666666667   0.413381306    0   0   0
Cr1      0.833333333   0.333333333   0.500000000    0   0   0
Cr1      0.333333333   0.333333333   0.500000000    0   0   0
Cr1      0.833333333   0.833333333   0.500000000    0   0   0
Cr1      0.333333333   0.833333333   0.500000000    0   0   0
Cr1     -0.000001800  -0.000000170   0.587997162
Cr1      0.499370655   0.001263809   0.585447314
Cr1      0.001261657   0.499368250   0.585447681
Cr1      0.499369323   0.499367067   0.585447458
C1       0.000000943  -0.000000343   0.658602954
H1      -0.000000269   0.000001212   0.703776130
End final coordinates

     Writing output data file calc.save

     General routines

     Parallel routines

   This run was terminated on:  22:37:41  16Apr2018

   JOB DONE.
Job  /afs/slac/g/suncat/bin/suncat-tsmpirun -x LD_LIBRARY_PATH -wdir /scratch/qe137751_KQHPQ pw.x -npool 4 -in pw.inp

TID   HOST_NAME   COMMAND_LINE            STATUS            TERMINATION_TIME
00000 suncat0086 pw.x -npool 4 -i  Done                     04/16/2018 22:37:41
00001 suncat0086 pw.x -npool 4 -i  Done                     04/16/2018 22:37:41
00002 suncat0086 pw.x -npool 4 -i  Done                     04/16/2018 22:37:41
00003 suncat0086 pw.x -npool 4 -i  Done                     04/16/2018 22:37:41
00004 suncat0086 pw.x -npool 4 -i  Done                     04/16/2018 22:37:41
00005 suncat0086 pw.x -npool 4 -i  Done                     04/16/2018 22:37:41
00006 suncat0086 pw.x -npool 4 -i  Done                     04/16/2018 22:37:41
00007 suncat0086 pw.x -npool 4 -i  Done                     04/16/2018 22:37:41
00008 suncat0072 pw.x -npool 4 -i  Done                     04/16/2018 22:37:41
00009 suncat0072 pw.x -npool 4 -i  Done                     04/16/2018 22:37:41
00010 suncat0072 pw.x -npool 4 -i  Done                     04/16/2018 22:37:41
00011 suncat0072 pw.x -npool 4 -i  Done                     04/16/2018 22:37:41
00012 suncat0072 pw.x -npool 4 -i  Done                     04/16/2018 22:37:41
00013 suncat0072 pw.x -npool 4 -i  Done                     04/16/2018 22:37:41
00014 suncat0072 pw.x -npool 4 -i  Done                     04/16/2018 22:37:41
00015 suncat0072 pw.x -npool 4 -i  Done                     04/16/2018 22:37:41
00016 suncat0016 pw.x -npool 4 -i  Done                     04/16/2018 22:37:41
00017 suncat0016 pw.x -npool 4 -i  Done                     04/16/2018 22:37:41
00018 suncat0016 pw.x -npool 4 -i  Done                     04/16/2018 22:37:41
00019 suncat0016 pw.x -npool 4 -i  Done                     04/16/2018 22:37:41
00020 suncat0016 pw.x -npool 4 -i  Done                     04/16/2018 22:37:41
00021 suncat0016 pw.x -npool 4 -i  Done                     04/16/2018 22:37:41
00022 suncat0016 pw.x -npool 4 -i  Done                     04/16/2018 22:37:41
00023 suncat0016 pw.x -npool 4 -i  Done                     04/16/2018 22:37:41
00024 suncat0014 pw.x -npool 4 -i  Done                     04/16/2018 22:37:41
00025 suncat0014 pw.x -npool 4 -i  Done                     04/16/2018 22:37:41
00026 suncat0014 pw.x -npool 4 -i  Done                     04/16/2018 22:37:41
00027 suncat0014 pw.x -npool 4 -i  Done                     04/16/2018 22:37:41
00028 suncat0014 pw.x -npool 4 -i  Done                     04/16/2018 22:37:41
00029 suncat0014 pw.x -npool 4 -i  Done                     04/16/2018 22:37:41
00030 suncat0014 pw.x -npool 4 -i  Done                     04/16/2018 22:37:41
00031 suncat0014 pw.x -npool 4 -i  Done                     04/16/2018 22:37:41