     Program PWSCF v.5.1rc2 starts on 27Apr2018 at 11:26:58

     Current dimensions of program PWSCF are:
     Max number of different atomic species (ntypx) = 10
     Max number of k-points (npk) =  40000
     Max angular momentum in pseudopotentials (lmaxx) =  3
     Presently stress not available with electric field

     IMPORTANT: XC functional enforced from input :
     Exchange-correlation      = BEEF-VDW ( 1  4 27 13 2)
     Any further DFT definition will be discarded
     Please, verify this is what you really want

     bravais-lattice index     =            0
     lattice parameter (alat)  =       1.8897  a.u.
     unit-cell volume          =    7276.7660 (a.u.)^3
     number of atoms/cell      =           14
     number of atomic types    =            3
     number of electrons       =       187.00
     number of Kohn-Sham states=          103
     kinetic-energy cutoff     =      36.7493  Ry
     charge density cutoff     =     367.4932  Ry
     convergence threshold     =      1.0E-05
     mixing beta               =       0.3000
     number of iterations used =           10  plain     mixing
     Exchange-correlation      = BEEF-VDW ( 1  4 27 13 2)
     nstep                     =           50

     celldm(1)=   1.889726  celldm(2)=   0.000000  celldm(3)=   0.000000
     celldm(4)=   0.000000  celldm(5)=   0.000000  celldm(6)=   0.000000

     crystal axes: (cart. coord. in units of alat)
               a(1) = (   6.962526   0.000000   0.000000 )
               a(2) = (   3.481263   6.029724   0.000000 )
               a(3) = (   0.000000   0.000000  25.684879 )

     reciprocal axes: (cart. coord. in units 2 pi/alat)
               b(1) = (  0.143626 -0.082923  0.000000 )
               b(2) = (  0.000000  0.165845  0.000000 )
               b(3) = (  0.000000  0.000000  0.038933 )

     PseudoPot. # 1 for Bi read from file:
     /home/users/mamunm/src/pseudo/gbrv1.5pbe/Bi.UPF
     MD5 check sum: 81103212dc04adf40945787f699eab19
     Pseudo is Ultrasoft + core correction, Zval = 15.0
     Generated by new atomic code, or converted to UPF format
     Using radial grid of  899 points,  6 beta functions with:
                l(1) =   0
                l(2) =   0
                l(3) =   1
                l(4) =   1
                l(5) =   2
                l(6) =   2
     Q(r) pseudized with  6 coefficients,  rinner =    1.000   1.000   1.000
                                                       1.000   1.000

     PseudoPot. # 2 for O  read from file:
     /home/users/mamunm/src/pseudo/gbrv1.5pbe/O.UPF
     MD5 check sum: 734c27235a0248c51dbae37a1fbe46ec
     Pseudo is Ultrasoft + core correction, Zval =  6.0
     Generated by new atomic code, or converted to UPF format
     Using radial grid of  737 points,  5 beta functions with:
                l(1) =   0
                l(2) =   0
                l(3) =   1
                l(4) =   1
                l(5) =   2
     Q(r) pseudized with  8 coefficients,  rinner =    0.900   0.900   0.900
                                                       0.900   0.900

     PseudoPot. # 3 for H  read from file:
     /home/users/mamunm/src/pseudo/gbrv1.5pbe/H.UPF
     MD5 check sum: 761ae9a214b05c3daf00ab9f6b793d6f
     Pseudo is Ultrasoft, Zval =  1.0
     Generated by new atomic code, or converted to UPF format
     Using radial grid of  615 points,  2 beta functions with:
                l(1) =   0
                l(2) =   0
     Q(r) pseudized with  8 coefficients,  rinner =    0.700

     vdW kernel table read from file vdW_kernel_table
     MD5 check sum: 095c7af220d748ca6e76c0b4c6cfb241

     atomic species   valence    mass     pseudopotential
        Bi1           15.00   208.98040     Bi( 1.00)
        O1             6.00    15.99900     O ( 1.00)
        H1             1.00     1.00800     H ( 1.00)

     No symmetry found

   Cartesian axes

     site n.     atom                  positions (alat units)
         1           Bi1 tau(   1) = (   1.7406315   1.0049541  10.0000000  )
         2           Bi1 tau(   2) = (   5.2218945   1.0049541  10.0000000  )
         3           Bi1 tau(   3) = (   3.4812630   4.0198163  10.0000000  )
         4           Bi1 tau(   4) = (   6.9625260   4.0198163  10.0000000  )
         5           Bi1 tau(   5) = (   6.9625260   2.0099081  12.8424393  )
         6           Bi1 tau(   6) = (   3.4812630   2.0099081  12.8424393  )
         7           Bi1 tau(   7) = (   8.7031575   5.0247703  12.8424393  )
         8           Bi1 tau(   8) = (   5.2218945   5.0247703  12.8424393  )
         9           Bi1 tau(   9) = (   0.0000000   0.0000000  15.6848787  )
        10           Bi1 tau(  10) = (   3.4812630   0.0000000  15.6848787  )
        11           Bi1 tau(  11) = (   1.7406315   3.0148622  15.6848787  )
        12           Bi1 tau(  12) = (   5.2218945   3.0148622  15.6848787  )
        13           O1  tau(  13) = (   1.7406315   0.0000000  17.2898787  )
        14           H1  tau(  14) = (   1.7406315   0.0000000  18.2398787  )

     number of k points=    20  Fermi-Dirac smearing, width (Ry)=  0.0110
                       cart. coord. in units 2pi/alat
        k(    1) = (   0.0000000   0.0000000   0.0000000), wk =   0.0555556
        k(    2) = (   0.0000000   0.0276408   0.0000000), wk =   0.1111111
        k(    3) = (   0.0000000   0.0552817   0.0000000), wk =   0.1111111
        k(    4) = (   0.0000000  -0.0829225   0.0000000), wk =   0.0555556
        k(    5) = (   0.0239377  -0.0138204   0.0000000), wk =   0.1111111
        k(    6) = (   0.0239377   0.0138204   0.0000000), wk =   0.1111111
        k(    7) = (   0.0239377   0.0414613   0.0000000), wk =   0.1111111
        k(    8) = (   0.0239377  -0.0967430   0.0000000), wk =   0.1111111
        k(    9) = (   0.0239377  -0.0691021   0.0000000), wk =   0.1111111
        k(   10) = (   0.0239377  -0.0414613   0.0000000), wk =   0.1111111
        k(   11) = (   0.0478753  -0.0276408   0.0000000), wk =   0.1111111
        k(   12) = (   0.0478753  -0.0000000   0.0000000), wk =   0.1111111
        k(   13) = (   0.0478753   0.0276408   0.0000000), wk =   0.1111111
        k(   14) = (   0.0478753  -0.1105634   0.0000000), wk =   0.1111111
        k(   15) = (   0.0478753  -0.0829225   0.0000000), wk =   0.1111111
        k(   16) = (   0.0478753  -0.0552817   0.0000000), wk =   0.1111111
        k(   17) = (  -0.0718130   0.0414613   0.0000000), wk =   0.0555556
        k(   18) = (  -0.0718130   0.0691021   0.0000000), wk =   0.1111111
        k(   19) = (  -0.0718130   0.0967430   0.0000000), wk =   0.1111111
        k(   20) = (  -0.0718130  -0.0414613   0.0000000), wk =   0.0555556

     Largest allocated arrays     est. size (Mb)     dimensions
     Largest temporary arrays     est. size (Mb)     dimensions

     Check: negative/imaginary core charge=   -0.000001    0.000000

     Initial potential from superposition of free atoms
     Check: negative starting charge=   -0.503096

     starting charge  174.99949, renormalised to  187.00000

     negative rho (up, down):  5.376E-01 0.000E+00

     *
     * You are using vdW-DF for exchange-correlation in this calculation.
     * Please cite the following three references that made this development
     * possible:
     *
     *   M. Dion, H. Rydberg, E. Schroder, D. C. Langreth, and
     *   B. I. Lundqvist, Phys. Rev. Lett. 92, 246401 (2004).
     *
     *   T. Thonhauser, V. R. Cooper, S. Li, A. Puzder, P. Hyldgaard, and
     *   D. C. Langreth, Phys. Rev. B 76, 125112 (2007).
     *
     *   G. Roman-Perez and J. M. Soler, Phys. Rev. Lett. 103, 096102 (2009).
     *
     *
     * If you are using vdW-DF2, please also cite:
     *
     *   K. Lee, E. D. Murray, L. Kong, B. I. Lundqvist, and
     *   D. C. Langreth, Phys. Rev. B 82, 081101(R) (2010).
     *
     *
     * If you are calculating the stress with vdW-DF, please also cite:
     *
     *   R. Sabatini, E. Kucukbenli, B. Kolb, T. Thonhauser, and
     *   S. de Gironcoli, J. Phys.: Condens. Matter 24, 424209 (2012).
     *

     Carrying out vdW-DF run using the following parameters:

     Nqs =      20    Nr_points =    1024   r_max =   100.000
     q_mesh =
               0.00001000     0.04494208     0.09755937     0.15916263
               0.23128650     0.31572767     0.41458969     0.53033537
               0.66584808     0.82450364     1.01025438     1.22772762
               1.48234092     1.78043706     2.12944203     2.53805004
               3.01644009     3.57652955     4.23227104     5.00000000

     Gradients computed in reciprocal space

     Adding external electric field

     Computed dipole along edir(3) :
        Dipole               -4.1573 Ry au,        -10.5668 Debye
        Dipole field         -0.0072 Ry au

        Potential amp.        0.6795 Ry
        Total length         47.3240 bohr

     Starting wfc are  113 randomized atomic wfcs

     Self-consistent Calculation

     iteration #  1     ecut=    36.75 Ry     beta=0.30
     Davidson diagonalization with overlap
     ethr =  1.00E-02,  avg # of iterations =  8.1

[...]

     total energy              =   -2213.40071690 Ry
     Harris-Foulkes estimate   =   -2281.42148462 Ry
     estimated scf accuracy    <     143.93093037 Ry

[...]

     End of self-consistent calculation

          k = 0.0000 0.0000 0.0000 ( 27441 PWs)   bands (ev):

   -22.1788 -22.1628 -22.1625 -22.1617 -22.1209 -22.1145 -22.1116 -22.1102
   -22.1007 -22.1001 -22.0902 -22.0771 -22.0759 -22.0669 -22.0504 -22.0411
   -22.0400 -22.0376 -22.0182 -22.0078 -22.0034 -21.9873 -21.9834 -21.9739
   -21.9660 -21.9618 -21.9416 -21.9388 -21.9275 -21.9232 -21.8786 -21.8779
   -21.8767 -21.8358 -21.8353 -21.8338 -21.8327 -21.8083 -21.8017 -21.7960
   -21.7753 -21.7601 -21.7583 -21.7577 -21.7527 -21.7502 -21.7486 -21.7441
   -21.7391 -21.7364 -21.7352 -21.7323 -21.7266 -21.7226 -21.7180 -21.7116
   -21.6966 -21.6954 -21.6921 -21.6885 -18.4153 -11.9671 -10.8973  -9.8085
    -9.2024  -9.1593  -9.1022  -8.7546  -8.6644  -8.5446  -8.2571  -8.2395
    -8.1655  -5.9693  -3.4773  -3.4666  -3.3108  -2.8467  -2.7860  -2.7338
    -2.4443  -2.3729  -2.2722  -2.0032  -1.6238  -1.2330  -0.0136   1.2038
     1.2408   1.2717   1.4164   1.6352   1.8148   2.3528   2.4026   2.4203
     2.8721   3.3782   3.4522   3.5096   3.5170   3.7502   3.9256

[...]

          k =-0.0718 0.0415 0.0000 ( 27378 PWs)   bands (ev):

[...]

     the Fermi energy is     1.6370 ev

!    total energy              =   -2279.57906353 Ry
     Harris-Foulkes estimate   =   -2279.57905738 Ry
     estimated scf accuracy    <       0.00000604 Ry

     The total energy is the sum of the following terms:

     one-electron contribution =  -11051.60734465 Ry
     hartree contribution      =    5584.38277001 Ry
     xc contribution           =    -807.41403185 Ry
     ewald contribution        =    3995.11616839 Ry
     electric field correction =       0.00005889 Ry
     smearing contrib. (-TS)   =      -0.05668431 Ry

     convergence has been achieved in  16 iterations

 BEEF-vdW xc energy contributions
           1 :   -719.649808853424
           2 :    668.575863252381
           3 :   -578.573157361246
           4 :    469.307401183735
           5 :   -361.330965957275
           6 :    270.115923647562
           7 :   -202.608921656157
           8 :    157.138436614391
           9 :   -126.306305806773
          10 :    101.376743036219
          11 :   -76.2254629650242
          12 :    49.3005389548277
          13 :   -23.1098494723337
          14 :    1.89790411536228
          15 :    11.1053696592879
          16 :   -15.4964124149217
          17 :    13.8399545098841
          18 :   -10.3018534912180
          19 :    8.61637629571010
          20 :   -10.4593848573434
          21 :    14.9925886385040
          22 :   -19.6954981096191
          23 :    21.9420035148562
          24 :   -20.4586424457891
          25 :    15.9375454107785
          26 :   -10.5696226157427
          27 :    6.82679747089355
          28 :   -6.17793309599585
          29 :    8.40130894543995
          30 :   -11.8103874219794
          31 :   -57.6096716371426
          32 :   -42.3586130574367

     Forces acting on atoms (Ry/au):

     negative rho (up, down):  5.261E-01 0.000E+00
     atom    1 type  1   force =    -0.00000048    0.00099958   -0.00811109
     atom    2 type  1   force =     0.00000798   -0.00111282   -0.00628680
     atom    3 type  1   force =     0.00404184   -0.00030120   -0.01083314
     atom    4 type  1   force =    -0.00403659   -0.00028496   -0.01078765
     atom    5 type  1   force =     0.00071369    0.00309914   -0.00357847
     atom    6 type  1   force =    -0.00070484    0.00309891   -0.00360592
     atom    7 type  1   force =     0.00000783   -0.00118258    0.00235811
     atom    8 type  1   force =    -0.00001121   -0.00216984   -0.00405378
     atom    9 type  1   force =    -0.01808880   -0.00102824    0.00200486
     atom   10 type  1   force =     0.01807984   -0.00103581    0.00201514
     atom   11 type  1   force =     0.00001015    0.00763894    0.00578839
     atom   12 type  1   force =    -0.00001014   -0.00711580    0.00715797
     atom   13 type  2   force =    -0.00000633    0.00105732   -0.03137480
     atom   14 type  3   force =    -0.00000296   -0.00166265    0.05930719

     Total force =     0.073237     Total SCF correction =     0.002143

     entering subroutine stress ...

     negative rho (up, down):  5.261E-01 0.000E+00
          total   stress  (Ry/bohr**3)                   (kbar)     P=    7.55
   0.00005307   0.00000000   0.00000000          7.81      0.00      0.00
   0.00000000   0.00004066  -0.00000173          0.00      5.98     -0.25
   0.00000000  -0.00000173   0.00006033          0.00     -0.25      8.87

     BFGS Geometry Optimization

     number of scf cycles    =   1
     number of bfgs steps    =   0

     energy   new            =   -2279.5790635272 Ry

     new trust radius        =       0.0593304873 bohr
     new conv_thr            =       0.0000099958 Ry

ATOMIC_POSITIONS (crystal)
Bi1      0.166666667   0.166666667   0.389334134    0   0   0
Bi1      0.666666667   0.166666667   0.389334134    0   0   0
Bi1      0.166666667   0.666666667   0.389334134    0   0   0
Bi1      0.666666667   0.666666667   0.389334134    0   0   0
Bi1      0.833333333   0.333333333   0.500000000    0   0   0
Bi1      0.333333333   0.333333333   0.500000000    0   0   0
Bi1      0.833333333   0.833333333   0.500000000    0   0   0
Bi1      0.333333333   0.833333333   0.500000000    0   0   0
Bi1     -0.001329695  -0.000090240   0.610707171
Bi1      0.501419586  -0.000090904   0.610707383
Bi1     -0.000334431   0.500670405   0.610785122
Bi1      0.500311476   0.499375507   0.610813339
O1       0.249953123   0.000092792   0.672507589
H1       0.250072734  -0.000145916   0.711362624

     Writing output data file calc.save
     Check: negative starting charge=   -0.503096
     NEW-OLD atomic charge density approx. for the potential

     Check: negative/imaginary core charge=   -0.000001    0.000000
     Check: negative starting charge=   -0.503233

[...]

     energy   old            =   -2279.5790635272 Ry
     energy   new            =   -2279.5797782591 Ry

     CASE: energy  _new < energy  _old

[...]

     iteration #  1     ecut=    36.75 Ry     beta=0.30
     Davidson diagonalization with overlap
     c_bands:  1 eigenvalues not converged
     ethr =  1.00E-06,  avg # of iterations = 12.6

[...]

     WARNING: bfgs curvature condition failed, Theta= 0.984
     new trust radius        =       0.1467130239 bohr
     new conv_thr            =       0.0000001000 Ry

[...]

     iteration #  1     ecut=    36.75 Ry     beta=0.30
     Davidson diagonalization with overlap
     c_bands:  1 eigenvalues not converged
     c_bands:  1 eigenvalues not converged
     ethr =  1.00E-06,  avg # of iterations = 12.2

[...]

     Total force =     0.006556     Total SCF correction =     0.001043
     SCF correction compared to forces is large: reduce conv_thr to get better values

[...]

     Total force =     0.008463     Total SCF correction =     0.000789

[...]

     number of scf cycles    =  42
     number of bfgs steps    =  41

     energy   old            =   -2279.6154169054 Ry
     energy   new            =   -2279.6154421449 Ry

     CASE: energy  _new < energy  _old

     new trust radius        =       0.0533691456 bohr
     new conv_thr            =       0.0000001000 Ry

ATOMIC_POSITIONS (crystal)
Bi1      0.166666667   0.166666667   0.389334134    0   0   0
Bi1      0.666666667   0.166666667   0.389334134    0   0   0
Bi1      0.166666667   0.666666667   0.389334134    0   0   0
Bi1      0.666666667   0.666666667   0.389334134    0   0   0
Bi1      0.833333333   0.333333333   0.500000000    0   0   0
Bi1      0.333333333   0.333333333   0.500000000    0   0   0
Bi1      0.833333333   0.833333333   0.500000000    0   0   0
Bi1      0.333333333   0.833333333   0.500000000    0   0   0
Bi1      0.017899830  -0.005175288   0.626050833
Bi1      0.486936617  -0.005179215   0.626001528
Bi1     -0.041761844   0.583173448   0.632955304
Bi1      0.538249873   0.422920212   0.616999634
O1       0.234957250   0.030189169   0.696264768
H1       0.296259369  -0.092221784   0.721207086

     Writing output data file calc.save
     Check: negative starting charge=   -0.503525
     NEW-OLD atomic charge density approx. for the potential

     Check: negative/imaginary core charge=   -0.000001    0.000000
     Check: negative starting charge=   -0.503194

[...]

     Self-consistent Calculation

[...]

     Threshold (ethr) on eigenvalues was too large:
     Diagonalizing with lowered threshold

     Davidson diagonalization with overlap
     ethr =  5.53E-08,  avg # of iterations =  2.0

[...]

     total energy              =   -2279.61547807 Ry
     Harris-Foulkes estimate   =   -2279.61547800 Ry
     estimated scf accuracy    <       0.00000011 Ry

     iteration #  8     ecut=    36.75 Ry     beta=0.30
     Davidson diagonalization with overlap
     ethr =  5.99E-11,  avg # of iterations =  3.0

[...]

     negative rho (up, down):  5.267E-01 0.000E+00

     Adding external electric field

     Computed dipole along edir(3) :
        Dipole               -0.1060 Ry au,         -0.2694 Debye
        Dipole field         -0.0002 Ry au

        Potential amp.        0.0173 Ry
        Total length         47.3240 bohr

     End of self-consistent calculation

[...]

          k = 0.0479-0.0553 0.0000 ( 27352 PWs)   bands (ev):

[...]

          k =-0.0718-0.0415 0.0000 ( 27378 PWs)   bands (ev):

   -22.3173 -22.2895 -22.2695 -22.2634 -22.2623 -22.2553 -22.2447 -22.2323
   -22.2204 -22.2162 -22.2102 -22.2085 -22.2056 -22.1970 -22.1924 -22.1906
   -22.1877 -22.1862 -22.1837 -22.1827 -22.1799 -22.1776 -22.1734 -22.1702
   -22.1645 -22.1585 -22.1573 -22.1471 -22.1217 -22.1191 -22.0990 -22.0890
   -22.0625 -22.0459 -22.0350 -22.0323 -22.0256 -22.0182 -22.0135 -22.0074
   -22.0021 -21.9971 -21.9919 -21.9898 -21.9818 -21.9804 -21.9721 -21.9708
   -21.9448 -21.9398 -21.8374 -21.8310 -21.8083 -21.8068 -21.7958 -21.7782
   -21.7679 -21.7579 -21.7548 -21.7451 -18.2733 -11.0236 -10.9337 -10.4163
   -10.0241  -9.5161  -9.4145  -9.3386  -9.3242  -8.9961  -8.4769  -8.3945
    -8.0218  -5.4835  -2.8336  -2.4066  -2.0173  -1.9779  -1.8449  -1.8044
    -1.7198  -1.6907  -1.3032  -0.8654  -0.5305  -0.5045  -0.3140  -0.1976
     0.1798   0.4907   0.6072   0.8070   0.9599   1.0709   1.1778   1.3017
     1.3443   1.5833   1.9069   2.2591   2.5309   2.6592   3.1197

     the Fermi energy is     1.4211 ev

!    total energy              =   -2279.61547807 Ry
     Harris-Foulkes estimate   =   -2279.61547807 Ry
     estimated scf accuracy    <       0.00000001 Ry

     The total energy is the sum of the following terms:

     one-electron contribution =  -10394.89496310 Ry
     hartree contribution      =    5255.15182392 Ry
     xc contribution           =    -807.17894923 Ry
     ewald contribution        =    3667.35531850 Ry
     electric field correction =       0.00001941 Ry
     smearing contrib. (-TS)   =      -0.04872757 Ry

     convergence has been achieved in   8 iterations

 BEEF-vdW xc energy contributions
           1 :   -719.402073035894
           2 :    668.149681554360
           3 :   -577.924842491982
           4 :    468.548159312804
           5 :   -360.648030612719
           6 :    269.667799959203
           7 :   -202.446953661252
           8 :    157.186006248084
           9 :   -126.403593181518
          10 :    101.369272933868
          11 :   -76.0503966647751
          12 :    49.0219563872698
          13 :   -22.8790355510392
          14 :    1.86091110625091
          15 :    10.8954829746534
          16 :   -15.1138671073812
          17 :    13.4519108591992
          18 :   -10.0813311647880
          19 :    8.64638773515787
          20 :   -10.6846795322730
          21 :    15.2502178214764
          22 :   -19.8071359924674
          23 :    21.8151043613813
          24 :   -20.1392055541072
          25 :    15.5852266637554
          26 :   -10.3703371448469
          27 :    6.88972522954066
          28 :   -6.47085111789602
          29 :    8.76360562600689
          30 :   -12.0412652849130
          31 :   -57.5877668005462
          32 :   -42.2843366879723

     Forces acting on atoms (Ry/au):

     negative rho (up, down):  5.267E-01 0.000E+00
     atom    1 type  1   force =    -0.00000613    0.00436432   -0.00270950
     atom    2 type  1   force =     0.00001870   -0.00458576   -0.00335051
     atom    3 type  1   force =     0.00069039    0.00010606   -0.00525293
     atom    4 type  1   force =    -0.00069674    0.00010828   -0.00521564
     atom    5 type  1   force =     0.00365169    0.00273646    0.00282542
     atom    6 type  1   force =    -0.00363068    0.00276216    0.00285849
     atom    7 type  1   force =     0.00002796   -0.00689899    0.01138953
     atom    8 type  1   force =    -0.00000554    0.00128724   -0.00131999
     atom    9 type  1   force =    -0.00002385    0.00053605    0.00038668
     atom   10 type  1   force =    -0.00006801    0.00048986    0.00039379
     atom   11 type  1   force =     0.00001433    0.00027033   -0.00018873
     atom   12 type  1   force =     0.00002071    0.00004935   -0.00015188
     atom   13 type  2   force =     0.00000233   -0.00067888   -0.00078034
     atom   14 type  3   force =     0.00000486   -0.00054647    0.00111560

     Total force =     0.001893     Total SCF correction =     0.000372
     SCF correction compared to forces is large: reduce conv_thr to get better values

     entering subroutine stress ...

     negative rho (up, down):  5.267E-01 0.000E+00
          total   stress  (Ry/bohr**3)                   (kbar)     P=    2.42
   0.00002849  -0.00000000  -0.00000004          4.19     -0.00     -0.01
  -0.00000000   0.00002331  -0.00000075         -0.00      3.43     -0.11
  -0.00000004  -0.00000075  -0.00000252         -0.01     -0.11     -0.37

     bfgs converged in  43 scf cycles and  42 bfgs steps
     (criteria: energy <  1.0E+00, force <  1.9E-03)

     End of BFGS Geometry Optimization

     Final energy   =   -2279.6154780708 Ry
Begin final coordinates

ATOMIC_POSITIONS (crystal)
Bi1      0.166666667   0.166666667   0.389334134    0   0   0
Bi1      0.666666667   0.166666667   0.389334134    0   0   0
Bi1      0.166666667   0.666666667   0.389334134    0   0   0
Bi1      0.666666667   0.666666667   0.389334134    0   0   0
Bi1      0.833333333   0.333333333   0.500000000    0   0   0
Bi1      0.333333333   0.333333333   0.500000000    0   0   0
Bi1      0.833333333   0.833333333   0.500000000    0   0   0
Bi1      0.333333333   0.833333333   0.500000000    0   0   0
Bi1      0.017899830  -0.005175288   0.626050833
Bi1      0.486936617  -0.005179215   0.626001528
Bi1     -0.041761844   0.583173448   0.632955304
Bi1      0.538249873   0.422920212   0.616999634
O1       0.234957250   0.030189169   0.696264768
H1       0.296259369  -0.092221784   0.721207086
End final coordinates

     Writing output data file calc.save

     General routines

     Parallel routines

   This run was terminated on:  14: 7:58  27Apr2018

   JOB DONE.