     Program PWSCF v.5.1rc2 starts on  3Feb2018 at 20:35:11

     Current dimensions of program PWSCF are:
     Max number of different atomic species (ntypx) = 10
     Max number of k-points (npk) =  40000
     Max angular momentum in pseudopotentials (lmaxx) =  3
     Presently stress not available with electric field

     IMPORTANT: XC functional enforced from input :
     Exchange-correlation      = BEEF-VDW ( 1  4 27 13 2)
     Any further DFT definition will be discarded
     Please, verify this is what you really want

     bravais-lattice index     =            0
     lattice parameter (alat)  =       1.8897  a.u.
     unit-cell volume          =    4515.4205 (a.u.)^3
     number of atoms/cell      =           13
     number of atomic types    =            2
     number of electrons       =       246.00
     number of Kohn-Sham states=          133
     kinetic-energy cutoff     =      36.7493  Ry
     charge density cutoff     =     367.4932  Ry
     convergence threshold     =      1.0E-05
     mixing beta               =       0.3000
     number of iterations used =           10  plain     mixing
     Exchange-correlation      = BEEF-VDW ( 1  4 27 13 2)
     nstep                     =           50

     celldm(1)=   1.889726  celldm(2)=   0.000000  celldm(3)=   0.000000
     celldm(4)=   0.000000  celldm(5)=   0.000000  celldm(6)=   0.000000

     crystal axes: (cart. coord. in units of alat)
               a(1) = (   5.606773   0.000000   0.000000 )
               a(2) = (   2.803387   4.855608   0.000000 )
               a(3) = (   0.000000   0.000000  24.577911 )

     reciprocal axes: (cart. coord. in units 2 pi/alat)
               b(1) = (  0.178356 -0.102974  0.000000 )
               b(2) = (  0.000000  0.205947  0.000000 )
               b(3) = (  0.000000  0.000000  0.040687 )

     PseudoPot. # 1 for Zn read from file:
     /home/users/mamunm/src/pseudo/gbrv1.5pbe/Zn.UPF
     MD5 check sum: df62231357ef9e81f77b2b3087fa5675
     Pseudo is Ultrasoft, Zval = 20.0
     Generated by new atomic code, or converted to UPF format
     Using radial grid of  943 points,  6 beta functions with:
                l(1) =   0
                l(2) =   0
                l(3) =   1
                l(4) =   1
                l(5) =   2
                l(6) =   2
     Q(r) pseudized with  8 coefficients,  rinner =    1.100   1.100   1.100
                                                       1.100   1.100

     PseudoPot. # 2 for S  read from file:
     /home/users/mamunm/src/pseudo/gbrv1.5pbe/S.UPF
     MD5 check sum: 88d86576ff6df21479756cfb9bdac1df
     Pseudo is Ultrasoft + core correction, Zval =  6.0
     Generated by new atomic code, or converted to UPF format
     Using radial grid of  907 points,  6 beta functions with:
                l(1) =   0
                l(2) =   0
                l(3) =   1
                l(4) =   1
                l(5) =   2
                l(6) =   2
     Q(r) pseudized with  8 coefficients,  rinner =    1.300   1.300   1.300
                                                       1.300   1.300

     vdW kernel table read from file vdW_kernel_table
     MD5 check sum: 095c7af220d748ca6e76c0b4c6cfb241

     atomic species   valence    mass     pseudopotential
        Zn1           20.00    65.38000     Zn( 1.00)
        S1             6.00    32.06000     S ( 1.00)

     No symmetry found

   Cartesian axes

     site n.     atom                  positions (alat units)
         1           Zn1 tau(   1) = (   1.4016933   0.8092680  10.0000000  )
         2           Zn1 tau(   2) = (   4.2050800   0.8092680  10.0000000  )
         3           Zn1 tau(   3) = (   2.8033867   3.2370721  10.0000000  )
         4           Zn1 tau(   4) = (   5.6067733   3.2370721  10.0000000  )
         5           Zn1 tau(   5) = (   5.6067733   1.6185360  12.2889556  )
         6           Zn1 tau(   6) = (   2.8033867   1.6185360  12.2889556  )
         7           Zn1 tau(   7) = (   7.0084667   4.0463401  12.2889556  )
         8           Zn1 tau(   8) = (   4.2050800   4.0463401  12.2889556  )
         9           Zn1 tau(   9) = (   0.0000000   0.0000000  14.5779113  )
        10           Zn1 tau(  10) = (   2.8033867   0.0000000  14.5779113  )
        11           Zn1 tau(  11) = (   1.4016933   2.4278041  14.5779113  )
        12           Zn1 tau(  12) = (   4.2050800   2.4278041  14.5779113  )
        13           S1  tau(  13) = (   2.8033867   1.6185360  16.0534113  )

     number of k points=    20  Fermi-Dirac smearing, width (Ry)=  0.0110
                       cart. coord. in units 2pi/alat
        k(    1) = (   0.0000000   0.0000000   0.0000000), wk =   0.0555556
        k(    2) = (   0.0000000   0.0343246   0.0000000), wk =   0.1111111
        k(    3) = (   0.0000000   0.0686491   0.0000000), wk =   0.1111111
        k(    4) = (   0.0000000  -0.1029737   0.0000000), wk =   0.0555556
        k(    5) = (   0.0297260  -0.0171623   0.0000000), wk =   0.1111111
        k(    6) = (   0.0297260   0.0171623   0.0000000), wk =   0.1111111
        k(    7) = (   0.0297260   0.0514869   0.0000000), wk =   0.1111111
        k(    8) = (   0.0297260  -0.1201360   0.0000000), wk =   0.1111111
        k(    9) = (   0.0297260  -0.0858114   0.0000000), wk =   0.1111111
        k(   10) = (   0.0297260  -0.0514869   0.0000000), wk =   0.1111111
        k(   11) = (   0.0594519  -0.0343246   0.0000000), wk =   0.1111111
        k(   12) = (   0.0594519  -0.0000000   0.0000000), wk =   0.1111111
        k(   13) = (   0.0594519   0.0343246   0.0000000), wk =   0.1111111
        k(   14) = (   0.0594519  -0.1372983   0.0000000), wk =   0.1111111
        k(   15) = (   0.0594519  -0.1029737   0.0000000), wk =   0.1111111
        k(   16) = (   0.0594519  -0.0686491   0.0000000), wk =   0.1111111
        k(   17) = (  -0.0891779   0.0514869   0.0000000), wk =   0.0555556
        k(   18) = (  -0.0891779   0.0858114   0.0000000), wk =   0.1111111
        k(   19) = (  -0.0891779   0.1201360   0.0000000), wk =   0.1111111
        k(   20) = (  -0.0891779  -0.0514869   0.0000000), wk =   0.0555556

     Largest allocated arrays     est. size (Mb)     dimensions
     Largest temporary arrays     est. size (Mb)     dimensions

     Initial potential from superposition of free atoms
     Check: negative starting charge=   -0.000808

     starting charge  245.99827, renormalised to  246.00000

     negative rho (up, down):  8.082E-04 0.000E+00

     *
     * You are using vdW-DF for exchange-correlation in this calculation.
     * Please cite the following three references that made this development
     * possible:
     *
     *   M. Dion, H. Rydberg, E. Schroder, D. C. Langreth, and
     *   B. I. Lundqvist, Phys. Rev. Lett. 92, 246401 (2004).
     *
     *   T. Thonhauser, V. R. Cooper, S. Li, A. Puzder, P. Hyldgaard, and
     *   D. C. Langreth, Phys. Rev. B 76, 125112 (2007).
     *
     *   G. Roman-Perez and J. M. Soler, Phys. Rev. Lett. 103, 096102 (2009).
     *
     *
     * If you are using vdW-DF2, please also cite:
     *
     *   K. Lee, E. D. Murray, L. Kong, B. I. Lundqvist, and
     *   D. C. Langreth, Phys. Rev. B 82, 081101(R) (2010).
     *
     *
     * If you are calculating the stress with vdW-DF, please also cite:
     *
     *   R. Sabatini, E. Kucukbenli, B. Kolb, T. Thonhauser, and
     *   S. de Gironcoli, J. Phys.: Condens. Matter 24, 424209 (2012).
     *

     Carrying out vdW-DF run using the following parameters:

     Nqs =      20    Nr_points =    1024   r_max =   100.000
     q_mesh =
               0.00001000     0.04494208     0.09755937     0.15916263
               0.23128650     0.31572767     0.41458969     0.53033537
               0.66584808     0.82450364     1.01025438     1.22772762
               1.48234092     1.78043706     2.12944203     2.53805004
               3.01644009     3.57652955     4.23227104     5.00000000

     Gradients computed in reciprocal space

     Adding external electric field

     Computed dipole along edir(3) :
        Dipole               -0.0000 Ry au,         -0.0001 Debye
        Dipole field         -0.0000 Ry au

        Potential amp.        0.0000 Ry
        Total length         45.2844 bohr

     Starting wfc are  160 randomized atomic wfcs

     Self-consistent Calculation

     iteration #  1     ecut=    36.75 Ry     beta=0.30
     Davidson diagonalization with overlap
     ethr =  1.00E-02,  avg # of iterations =  3.0

     Threshold (ethr) on eigenvalues was too large:
     Diagonalizing with lowered threshold

     Davidson diagonalization with overlap
     ethr =  1.81E-04,  avg # of iterations =  4.4

[...]

     total energy              =   -5577.61239576 Ry
     Harris-Foulkes estimate   =   -5577.78183421 Ry
     estimated scf accuracy    <       0.45212041 Ry

[...]

     End of self-consistent calculation

          k = 0.0000 0.0000 0.0000 ( 16931 PWs)   bands (ev):

  -126.2939-126.2381-126.2372-126.2372-126.2274-126.2265-126.2265-126.0517
  -126.0508-126.0508-126.0239-126.0046 -80.4776 -80.4649 -80.4649 -80.4396
   -80.4310 -80.4310 -80.4196 -80.4196 -80.4151 -80.4090 -80.4090 -80.4082
   -80.4065 -80.4048 -80.4047 -80.4036 -80.4006 -80.3998 -80.3998 -80.3937
   -80.3937 -80.2412 -80.2397 -80.2397 -80.2307 -80.2271 -80.2271 -80.2201
   -80.2185 -80.2185 -80.2142 -80.1964 -80.1964 -80.1850 -80.1799 -80.1799
   -13.4545  -8.9146  -7.9182  -7.8422  -7.8422  -7.8015  -7.8014  -7.8014
    -7.7926  -7.7670  -7.7225  -7.7225  -7.6624  -7.5610  -7.5411  -7.5411
    -7.4225  -7.4225  -7.3338  -7.2784  -7.2784  -7.2522  -7.2522  -7.2448
    -7.2287  -7.2287  -7.2069  -7.1989  -7.1989  -7.1791  -7.0706  -7.0706
    -7.0283  -7.0283  -6.9350  -6.9350  -6.9054  -6.8814  -6.8814  -6.8233
    -6.7893  -6.7893  -6.7791  -6.7491  -6.7491  -6.6936  -6.6875  -6.6875
    -6.6827  -6.6631  -6.6631  -6.6507  -6.6507  -6.6328  -6.6234  -6.6234
    -6.5916  -6.5794  -6.5794  -6.4681  -6.4517  -6.4517  -6.3683  -3.6257
    -3.3355  -3.3355  -2.9174  -2.0178  -1.8662  -1.8662  -1.6571  -1.6571
    -1.3186  -0.6994  -0.6994  -0.6987   0.3956   0.8820   0.8820   1.1809
     2.3193   2.6319   2.6319   3.0988   3.5609

[...]

          k =-0.0892 0.0515 0.0000 ( 17028 PWs)   bands (ev):

[...]

     the Fermi energy is     0.5344 ev

!    total energy              =   -5577.72422156 Ry
     Harris-Foulkes estimate   =   -5577.72423228 Ry
     estimated scf accuracy    <       0.00000611 Ry

     The total energy is the sum of the following terms:

     one-electron contribution =  -36149.65730872 Ry
     hartree contribution      =   18055.69549656 Ry
     xc contribution           =    -529.83984109 Ry
     ewald contribution        =   13046.10447965 Ry
     electric field correction =       0.00004231 Ry
     smearing contrib. (-TS)   =      -0.02709027 Ry

     convergence has been achieved in   9 iterations

 BEEF-vdW xc energy contributions
           1 :   -470.468424675366
           2 :    426.256345444652
           3 :   -352.079482070056
           4 :    269.393062778084
           5 :   -197.198603053789
           6 :    144.978218255417
           7 :   -111.402489475948
           8 :    88.5493939678773
           9 :   -68.3863826166981
          10 :    47.4565873284032
          11 :   -27.4445263011364
          12 :    12.2044512658209
          13 :   -3.96648150340638
          14 :    1.47769727530181
          15 :   -1.04395469864397
          16 :  -0.744404470401037
          17 :    4.82227442784750
          18 :   -9.51692208029488
          19 :    12.3064894306290
          20 :   -11.9553693095596
          21 :    9.41423647491331
          22 :   -6.96284222768520
          23 :    6.42269637197359
          24 :   -7.87418491090290
          25 :    9.79377133522439
          26 :   -10.3795043783284
          27 :    8.96055265575910
          28 :   -6.42354405259601
          29 :    4.42011433971771
          30 :   -4.05882499461484
          31 :   -36.6845204996799
          32 :   -25.0426663034675

     Forces acting on atoms (Ry/au):

     negative rho (up, down):  1.049E-03 0.000E+00
     atom    1 type  1   force =    -0.00268694   -0.00155164   -0.00932851
     atom    2 type  1   force =     0.00268718   -0.00155102   -0.00933199
     atom    3 type  1   force =    -0.00000033    0.00310514   -0.00933301
     atom    4 type  1   force =    -0.00000074   -0.00000052   -0.00648587
     atom    5 type  1   force =    -0.00000128    0.00219622    0.00581015
     atom    6 type  1   force =    -0.00000255   -0.00000218    0.00067870
     atom    7 type  1   force =    -0.00190700   -0.00109817    0.00580682
     atom    8 type  1   force =     0.00190451   -0.00109705    0.00580889
     atom    9 type  1   force =    -0.00000257    0.00000048   -0.00816229
     atom   10 type  1   force =     0.00000408   -0.06891226   -0.02526540
     atom   11 type  1   force =    -0.05967667    0.03445228   -0.02526770
     atom   12 type  1   force =     0.05968207    0.03445860   -0.02527191
     atom   13 type  2   force =     0.00000025    0.00000011    0.10034213

     Total force =     0.162164     Total SCF correction =     0.015576

     entering subroutine stress ...

     negative rho (up, down):  1.049E-03 0.000E+00
          total   stress  (Ry/bohr**3)                   (kbar)     P=    0.06
  -0.00004603  -0.00000000   0.00000000         -6.77     -0.00      0.00
  -0.00000000  -0.00004603   0.00000000         -0.00     -6.77      0.00
   0.00000000   0.00000000   0.00009331          0.00      0.00     13.73

     BFGS Geometry Optimization

     number of scf cycles    =   1
     number of bfgs steps    =   0

     energy   new            =   -5577.7242215599 Ry

     new trust radius        =       0.1003421286 bohr
     new conv_thr            =       0.0000099958 Ry

ATOMIC_POSITIONS (crystal)
Zn1      0.166666667   0.166666667   0.406869400    0   0   0
Zn1      0.666666667   0.166666667   0.406869400    0   0   0
Zn1      0.166666667   0.666666667   0.406869400    0   0   0
Zn1      0.666666667   0.666666667   0.406869400    0   0   0
Zn1      0.833333333   0.333333333   0.500000000    0   0   0
Zn1      0.333333333   0.333333333   0.500000000    0   0   0
Zn1      0.833333333   0.833333333   0.500000000    0   0   0
Zn1      0.333333333   0.833333333   0.500000000    0   0   0
Zn1     -0.000000269   0.000000053   0.592954861
Zn1      0.503755506  -0.007510243   0.592586621
Zn1     -0.007509741   0.503754702   0.592586571
Zn1      0.503755204   0.503755390   0.592586481
S1       0.333333351   0.333333346   0.655324607

     Writing output data file calc.save
     Check: negative starting charge=   -0.000808
     NEW-OLD atomic charge density approx. for the potential
     Check: negative starting charge=   -0.000801

[...]

     energy   old            =   -5577.7242215599 Ry
     energy   new            =   -5577.7440589639 Ry

     CASE: energy  _new < energy  _old

[...]

     Total force =     0.012805     Total SCF correction =     0.001439
     SCF correction compared to forces is large: reduce conv_thr to get better values

[...]

     Total force =     0.016394     Total SCF correction =     0.001097

[...]

     number of scf cycles    =  19
     number of bfgs steps    =  18

     energy   old            =   -5577.7618428307 Ry
     energy   new            =   -5577.7618942617 Ry

     CASE: energy  _new < energy  _old

     new trust radius        =       0.0360693731 bohr
     new conv_thr            =       0.0000001000 Ry

ATOMIC_POSITIONS (crystal)
Zn1      0.166666667   0.166666667   0.406869400    0   0   0
Zn1      0.666666667   0.166666667   0.406869400    0   0   0
Zn1      0.166666667   0.666666667   0.406869400    0   0   0
Zn1      0.666666667   0.666666667   0.406869400    0   0   0
Zn1      0.833333333   0.333333333   0.500000000    0   0   0
Zn1      0.333333333   0.333333333   0.500000000    0   0   0
Zn1      0.833333333   0.833333333   0.500000000    0   0   0
Zn1      0.333333333   0.833333333   0.500000000    0   0   0
Zn1      0.000000310   0.000000006   0.588794989
Zn1      0.515418107  -0.030835889   0.602220761
Zn1     -0.030835601   0.515417735   0.602220743
Zn1      0.515418072   0.515418011   0.602220745
S1       0.333333459   0.333333367   0.663279301

     Writing output data file calc.save
     Check: negative starting charge=   -0.000794
     NEW-OLD atomic charge density approx. for the potential
     Check: negative starting charge=   -0.000791

[...]

     Self-consistent Calculation

[...]

     Threshold (ethr) on eigenvalues was too large:
     Diagonalizing with lowered threshold

     Davidson diagonalization with overlap
     ethr =  4.34E-09,  avg # of iterations =  2.0

[...]

     total energy              =   -5577.76195646 Ry
     Harris-Foulkes estimate   =   -5577.76195533 Ry
     estimated scf accuracy    <       0.00000015 Ry

     iteration #  6     ecut=    36.75 Ry     beta=0.30
     Davidson diagonalization with overlap
     ethr =  6.15E-11,  avg # of iterations =  3.0

[...]

     negative rho (up, down):  9.906E-04 0.000E+00

     Adding external electric field

     Computed dipole along edir(3) :
        Dipole               -0.2322 Ry au,         -0.5901 Debye
        Dipole field         -0.0006 Ry au

        Potential amp.        0.0585 Ry
        Total length         45.2844 bohr

     End of self-consistent calculation

[...]

          k = 0.0595-0.0686 0.0000 ( 16986 PWs)   bands (ev):

[...]

          k =-0.0892-0.0515 0.0000 ( 17028 PWs)   bands (ev):

  -126.3326-126.3323-126.3320-126.3074-126.1669-126.1666-126.1663-126.1503
  -126.1483-126.1483-126.1483-126.1371 -80.5136 -80.5119 -80.5118 -80.5114
   -80.5109 -80.5100 -80.5072 -80.5044 -80.5002 -80.4886 -80.4809 -80.4800
   -80.3619 -80.3559 -80.3554 -80.3550 -80.3505 -80.3497 -80.3436 -80.3420
   -80.3401 -80.3396 -80.3373 -80.3362 -80.3360 -80.3328 -80.3322 -80.3297
   -80.3292 -80.3231 -80.3217 -80.3075 -80.3066 -80.3041 -80.2960 -80.2952
   -12.5996  -7.8913  -7.7850  -7.6913  -7.6626  -7.6439  -7.6080  -7.5882
    -7.5759  -7.5577  -7.5377  -7.5254  -7.5194  -7.4881  -7.4321  -7.4153
    -7.4098  -7.3952  -7.3569  -7.3202  -7.3195  -7.2838  -7.2786  -7.2599
    -7.2377  -7.2133  -7.2120  -7.1746  -7.1715  -7.1372  -7.1326  -7.1219
    -7.1160  -7.0844  -7.0585  -7.0293  -7.0235  -7.0111  -7.0063  -7.0010
    -6.9976  -6.9794  -6.9602  -6.9523  -6.9424  -6.9206  -6.9007  -6.8924
    -6.8712  -6.8612  -6.8576  -6.8391  -6.8358  -6.8127  -6.7742  -6.7427
    -6.7217  -6.7206  -6.7000  -6.6985  -6.6720  -6.6659  -6.5266  -5.4772
    -4.9534  -3.7343  -3.5645  -3.3263  -2.9088  -2.7437  -2.1820  -1.2492
    -1.0291  -0.2464   0.7269   1.3416   1.4927   2.5862   3.0234   3.0833
     3.2283   3.4602   4.0327   4.3131   4.6307

     the Fermi energy is     0.4296 ev

!    total energy              =   -5577.76195647 Ry
     Harris-Foulkes estimate   =   -5577.76195589 Ry
     estimated scf accuracy    <       0.00000004 Ry

     The total energy is the sum of the following terms:

     one-electron contribution =  -35427.39292762 Ry
     hartree contribution      =   17694.15459052 Ry
     xc contribution           =    -529.68676647 Ry
     ewald contribution        =   12685.18767208 Ry
     electric field correction =       0.00015000 Ry
     smearing contrib. (-TS)   =      -0.02467498 Ry

     convergence has been achieved in   6 iterations

 BEEF-vdW xc energy contributions
           1 :   -470.306339663450
           2 :    425.990113227118
           3 :   -351.683929077171
           4 :    268.935842507174
           5 :   -196.784349484955
           6 :    144.672031403176
           7 :   -111.191538414898
           8 :    88.3693455719596
           9 :   -68.1869722072072
          10 :    47.2508214467185
          11 :   -27.3004386714683
          12 :    12.1860415146426
          13 :   -4.07343586514730
          14 :    1.63525204050461
          15 :   -1.15351014277690
          16 :  -0.733502189986439
          17 :    4.87869191207000
          18 :   -9.55954193364528
          19 :    12.2763844153735
          20 :   -11.8677852649218
          21 :    9.34740317258183
          22 :   -6.99157856417617
          23 :    6.55020649148526
          24 :   -8.01908383350087
          25 :    9.84618858525062
          26 :   -10.2845992125167
          27 :    8.76502144662675
          28 :   -6.24839141810872
          29 :    4.37998025237937
          30 :   -4.18887422593173
          31 :   -36.6711434319105
          32 :   -25.0023031298064

     Forces acting on atoms (Ry/au):

     negative rho (up, down):  9.906E-04 0.000E+00
     atom    1 type  1   force =    -0.00082787   -0.00047794   -0.01096426
     atom    2 type  1   force =     0.00082780   -0.00047794   -0.01096430
     atom    3 type  1   force =    -0.00000001    0.00095588   -0.01096426
     atom    4 type  1   force =    -0.00000002   -0.00000001   -0.00766981
     atom    5 type  1   force =     0.00000001    0.00501328    0.00889143
     atom    6 type  1   force =     0.00000001    0.00000001    0.01057042
     atom    7 type  1   force =    -0.00434162   -0.00250664    0.00889149
     atom    8 type  1   force =     0.00434164   -0.00250666    0.00889134
     atom    9 type  1   force =    -0.00000016   -0.00000002    0.00061992
     atom   10 type  1   force =     0.00000015    0.00097237    0.00058314
     atom   11 type  1   force =     0.00084205   -0.00048603    0.00058310
     atom   12 type  1   force =    -0.00084211   -0.00048628    0.00058314
     atom   13 type  2   force =     0.00000012   -0.00000002    0.00094864

     Total force =     0.002267     Total SCF correction =     0.000640
     SCF correction compared to forces is large: reduce conv_thr to get better values

     entering subroutine stress ...

     negative rho (up, down):  9.906E-04 0.000E+00
          total   stress  (Ry/bohr**3)                   (kbar)     P=  -12.56
  -0.00012322   0.00000000   0.00000000        -18.13      0.00      0.00
   0.00000000  -0.00012322  -0.00000000          0.00    -18.13     -0.00
   0.00000000  -0.00000000  -0.00000970          0.00     -0.00     -1.43

     bfgs converged in  20 scf cycles and  19 bfgs steps
     (criteria: energy <  1.0E+00, force <  1.9E-03)

     End of BFGS Geometry Optimization

     Final energy   =   -5577.7619564719 Ry
Begin final coordinates

ATOMIC_POSITIONS (crystal)
Zn1      0.166666667   0.166666667   0.406869400    0   0   0
Zn1      0.666666667   0.166666667   0.406869400    0   0   0
Zn1      0.166666667   0.666666667   0.406869400    0   0   0
Zn1      0.666666667   0.666666667   0.406869400    0   0   0
Zn1      0.833333333   0.333333333   0.500000000    0   0   0
Zn1      0.333333333   0.333333333   0.500000000    0   0   0
Zn1      0.833333333   0.833333333   0.500000000    0   0   0
Zn1      0.333333333   0.833333333   0.500000000    0   0   0
Zn1      0.000000310   0.000000006   0.588794989
Zn1      0.515418107  -0.030835889   0.602220761
Zn1     -0.030835601   0.515417735   0.602220743
Zn1      0.515418072   0.515418011   0.602220745
S1       0.333333459   0.333333367   0.663279301
End final coordinates

     Writing output data file calc.save

     General routines

     Parallel routines

   This run was terminated on:  21:26:41   3Feb2018

   JOB DONE.