     Program PWSCF v.5.1rc2 (svn rev. 11289) starts on  2May2018 at 20:10:42

     Current dimensions of program PWSCF are:
     Max number of different atomic species (ntypx) = 10
     Max number of k-points (npk) =  40000
     Max angular momentum in pseudopotentials (lmaxx) =  3
     Presently stress not available with electric field

     IMPORTANT: XC functional enforced from input :
     Exchange-correlation      = BEEF-VDW ( 1  4 27 13 2)
     Any further DFT definition will be discarded
     Please, verify this is what you really want

     Subspace diagonalization in iterative solution of the eigenvalue problem:
     a serial algorithm will be used

     bravais-lattice index     =            0
     lattice parameter (alat)  =       1.8897  a.u.
     unit-cell volume          =    6082.7792 (a.u.)^3
     number of atoms/cell      =           13
     number of atomic types    =            2
     number of electrons       =       150.00
     number of Kohn-Sham states=           85
     kinetic-energy cutoff     =      36.7493  Ry
     charge density cutoff     =     367.4932  Ry
     convergence threshold     =      1.0E-05
     mixing beta               =       0.3000
     number of iterations used =           10  plain     mixing
     Exchange-correlation      = BEEF-VDW ( 1  4 27 13 2)
     nstep                     =           50

     celldm(1)=   1.889726  celldm(2)=   0.000000  celldm(3)=   0.000000
     celldm(4)=   0.000000  celldm(5)=   0.000000  celldm(6)=   0.000000

     crystal axes: (cart. coord. in units of alat)
               a(1) = (   6.421223   0.000000   0.000000 )
               a(2) = (   3.210611   5.560942   0.000000 )
               a(3) = (   0.000000   0.000000  25.242906 )

     reciprocal axes: (cart. coord. in units 2 pi/alat)
               b(1) = (  0.155734 -0.089913  0.000000 )
               b(2) = (  0.000000  0.179826  0.000000 )
               b(3) = (  0.000000  0.000000  0.039615 )

     PseudoPot. # 1 for Zr read from file:
     /u/if/mamunm/psp/gbrv1.5pbe/Zr.UPF
     MD5 check sum: 5db81b1e868ab7776c4564c113de050b
     Pseudo is Ultrasoft + core correction, Zval = 12.0
     Generated by new atomic code, or converted to UPF format
     Using radial grid of  887 points,  6 beta functions with:
                l(1) =   0
                l(2) =   0
                l(3) =   1
                l(4) =   1
                l(5) =   2
                l(6) =   2
     Q(r) pseudized with  6 coefficients,  rinner =    1.200   1.200   1.200
                                                       1.200   1.200

     PseudoPot. # 2 for S  read from file:
     /u/if/mamunm/psp/gbrv1.5pbe/S.UPF
     MD5 check sum: 88d86576ff6df21479756cfb9bdac1df
     Pseudo is Ultrasoft + core correction, Zval =  6.0
     Generated by new atomic code, or converted to UPF format
     Using radial grid of  907 points,  6 beta functions with:
                l(1) =   0
                l(2) =   0
                l(3) =   1
                l(4) =   1
                l(5) =   2
                l(6) =   2
     Q(r) pseudized with  8 coefficients,  rinner =    1.300   1.300   1.300
                                                       1.300   1.300

     vdW kernel table read from file vdW_kernel_table
     MD5 check sum: 095c7af220d748ca6e76c0b4c6cfb241

     atomic species   valence    mass     pseudopotential
        Zr1           12.00    91.22400     Zr( 1.00)
        S1             6.00    32.06000     S ( 1.00)

     No symmetry found

   Cartesian axes

     site n.     atom                  positions (alat units)
         1           Zr1 tau(   1) = (   1.6053057   0.9268237  10.0000000  )
         2           Zr1 tau(   2) = (   4.8159170   0.9268237  10.0000000  )
         3           Zr1 tau(   3) = (   3.2106113   3.7072946  10.0000000  )
         4           Zr1 tau(   4) = (   6.4212227   3.7072946  10.0000000  )
         5           Zr1 tau(   5) = (   6.4212227   1.8536473  12.6214532  )
         6           Zr1 tau(   6) = (   3.2106113   1.8536473  12.6214532  )
         7           Zr1 tau(   7) = (   8.0265283   4.6341183  12.6214532  )
         8           Zr1 tau(   8) = (   4.8159170   4.6341183  12.6214532  )
         9           Zr1 tau(   9) = (   0.0000000   0.0000000  15.2429064  )
        10           Zr1 tau(  10) = (   3.2106113   0.0000000  15.2429064  )
        11           Zr1 tau(  11) = (   1.6053057   2.7804710  15.2429064  )
        12           Zr1 tau(  12) = (   4.8159170   2.7804710  15.2429064  )
        13           S1  tau(  13) = (   1.6053057   0.0000000  17.3429064  )

     number of k points=    20  Fermi-Dirac smearing, width (Ry)=  0.0110
                       cart. coord. in units 2pi/alat
        k(    1) = (   0.0000000   0.0000000   0.0000000), wk =   0.0555556
        k(    2) = (   0.0000000   0.0299709   0.0000000), wk =   0.1111111
        k(    3) = (   0.0000000   0.0599419   0.0000000), wk =   0.1111111
        k(    4) = (   0.0000000  -0.0899128   0.0000000), wk =   0.0555556
        k(    5) = (   0.0259556  -0.0149855   0.0000000), wk =   0.1111111
        k(    6) = (   0.0259556   0.0149855   0.0000000), wk =   0.1111111
        k(    7) = (   0.0259556   0.0449564   0.0000000), wk =   0.1111111
        k(    8) = (   0.0259556  -0.1048983   0.0000000), wk =   0.1111111
        k(    9) = (   0.0259556  -0.0749274   0.0000000), wk =   0.1111111
        k(   10) = (   0.0259556  -0.0449564   0.0000000), wk =   0.1111111
        k(   11) = (   0.0519112  -0.0299709   0.0000000), wk =   0.1111111
        k(   12) = (   0.0519112   0.0000000   0.0000000), wk =   0.1111111
        k(   13) = (   0.0519112   0.0299709   0.0000000), wk =   0.1111111
        k(   14) = (   0.0519112  -0.1198838   0.0000000), wk =   0.1111111
        k(   15) = (   0.0519112  -0.0899128   0.0000000), wk =   0.1111111
        k(   16) = (   0.0519112  -0.0599419   0.0000000), wk =   0.1111111
        k(   17) = (  -0.0778668   0.0449564   0.0000000), wk =   0.0555556
        k(   18) = (  -0.0778668   0.0749274   0.0000000), wk =   0.1111111
        k(   19) = (  -0.0778668   0.1048983   0.0000000), wk =   0.1111111
        k(   20) = (  -0.0778668  -0.0449564   0.0000000), wk =   0.0555556

     Largest allocated arrays     est. size (Mb)     dimensions
     Largest temporary arrays     est. size (Mb)     dimensions

     Initial potential from superposition of free atoms
     Check: negative starting charge=   -0.729071

     starting charge  149.97417, renormalised to  150.00000

     negative rho (up, down):  7.292E-01 0.000E+00

     *
     * You are using vdW-DF for exchange-correlation in this calculation.
     * Please cite the following three references that made this development
     * possible:
     *
     *   M. Dion, H. Rydberg, E. Schroder, D. C. Langreth, and
     *   B. I. Lundqvist, Phys. Rev. Lett. 92, 246401 (2004).
     *
     *   T. Thonhauser, V. R. Cooper, S. Li, A. Puzder, P. Hyldgaard, and
     *   D. C. Langreth, Phys. Rev. B 76, 125112 (2007).
     *
     *   G. Roman-Perez and J. M. Soler, Phys. Rev. Lett. 103, 096102 (2009).
     *
     *
     * If you are using vdW-DF2, please also cite:
     *
     *   K. Lee, E. D. Murray, L. Kong, B. I. Lundqvist, and
     *   D. C. Langreth, Phys. Rev. B 82, 081101(R) (2010).
     *
     *
     * If you are calculating the stress with vdW-DF, please also cite:
     *
     *   R. Sabatini, E. Kucukbenli, B. Kolb, T. Thonhauser, and
     *   S. de Gironcoli, J. Phys.: Condens. Matter 24, 424209 (2012).
     *

     Carrying out vdW-DF run using the following parameters:

     Nqs =      20    Nr_points =    1024   r_max =   100.000
     q_mesh =
               0.00001000     0.04494208     0.09755937     0.15916263
               0.23128650     0.31572767     0.41458969     0.53033537
               0.66584808     0.82450364     1.01025438     1.22772762
               1.48234092     1.78043706     2.12944203     2.53805004
               3.01644009     3.57652955     4.23227104     5.00000000

     Gradients computed in reciprocal space

     Adding external electric field

     Computed dipole along edir(3) :
        Dipole               -0.0089 Ry au,         -0.0226 Debye
        Dipole field         -0.0000 Ry au

        Potential amp.        0.0017 Ry
        Total length         46.5096 bohr

     Starting wfc are  160 randomized atomic wfcs

     Self-consistent Calculation

     iteration #  1     ecut=    36.75 Ry     beta=0.30
     Davidson diagonalization with overlap
     ethr =  1.00E-02,  avg # of iterations =  2.0

[...]

     total energy              =   -1218.70510036 Ry
     Harris-Foulkes estimate   =   -1221.97472762 Ry
     estimated scf accuracy    <       6.87857396 Ry

[...]

     End of self-consistent calculation

          k = 0.0000 0.0000 0.0000 ( 22923 PWs)   bands (ev):

   -48.0011 -47.9407 -47.9337 -47.8454 -47.8440 -47.8422 -47.8361 -47.8038
   -47.6231 -47.5495 -47.5402 -47.5302 -26.2638 -26.2527 -26.2314 -26.1975
   -26.1944 -26.1844 -26.1762 -26.0992 -26.0652 -26.0450 -25.9764 -25.9100
   -25.8497 -25.8231 -25.7303 -25.7193 -25.7119 -25.7063 -25.6902 -25.6768
   -25.6664 -25.6654 -25.6601 -25.5320 -25.5050 -25.5021 -25.4995 -25.4653
   -25.4627 -25.4518 -25.4284 -25.3640 -25.3570 -25.3537 -25.2083 -25.2074
   -10.5993  -3.6122  -2.5653  -1.8245  -1.6969  -1.5222  -1.5087  -1.2268
    -1.2089  -1.1314  -0.9529  -0.9071  -0.9052  -0.5947  -0.5576  -0.4993
    -0.3813  -0.3019  -0.2212   0.3557   0.6527   0.7898   1.2491   1.5033
     1.5609   1.6588   1.8258   1.9029   2.0318   2.0822   2.1705   2.2299
     2.2381   2.3662   2.4753   2.4874   2.5039

[...]

          k =-0.0779 0.0450 0.0000 ( 22880 PWs)   bands (ev):

[...]

     the Fermi energy is     1.3422 ev

!    total energy              =   -1221.47963350 Ry
     Harris-Foulkes estimate   =   -1221.47960867 Ry
     estimated scf accuracy    <       0.00000667 Ry

     The total energy is the sum of the following terms:

     one-electron contribution =   -8392.01681627 Ry
     hartree contribution      =    4188.30028590 Ry
     xc contribution           =    -229.26276873 Ry
     ewald contribution        =    3211.61492500 Ry
     electric field correction =       0.00023620 Ry
     smearing contrib. (-TS)   =      -0.11549559 Ry

     convergence has been achieved in  16 iterations

 BEEF-vdW xc energy contributions
           1 :   -196.280390311124
           2 :    177.410615751360
           3 :   -145.634963847767
           4 :    109.908086147668
           5 :   -78.2973649157325
           6 :    55.1991521990901
           7 :   -40.6629355916029
           8 :    31.7298462683124
           9 :   -24.7433492063414
          10 :    17.3306501044063
          11 :   -9.18690153503221
          12 :    1.56803688264301
          13 :    3.93676960652036
          14 :   -6.53457294851088
          15 :    6.65923823567746
          16 :   -5.59900460375954
          17 :    4.67931560813716
          18 :   -4.55202786365132
          19 :    4.99986207943172
          20 :   -5.29737019204768
          21 :    4.82256569493123
          22 :   -3.50096990041695
          23 :    1.82505859277947
          24 :  -0.495368989564128
          25 :  -3.596064750658456E-002
          26 :  -0.186193328208162
          27 :   0.712690828111903
          28 :   -1.02436882147492
          29 :   0.867674641488946
          30 :  -0.378226345259321
          31 :   -22.7856778038112
          32 :   -16.9288449128723

     Forces acting on atoms (Ry/au):

     negative rho (up, down):  7.491E-01 0.000E+00
     atom    1 type  1   force =     0.00002198   -0.00030092    0.01470105
     atom    2 type  1   force =    -0.00002101    0.00098246    0.01542594
     atom    3 type  1   force =     0.00055088   -0.00045749    0.01444615
     atom    4 type  1   force =    -0.00054315   -0.00043532    0.01439889
     atom    5 type  1   force =    -0.00214542    0.00222094   -0.00282839
     atom    6 type  1   force =     0.00214722    0.00226197   -0.00286651
     atom    7 type  1   force =     0.00004416    0.00041464   -0.00678867
     atom    8 type  1   force =    -0.00002840   -0.00208416   -0.00473472
     atom    9 type  1   force =     0.00478381   -0.00625602    0.02448201
     atom   10 type  1   force =    -0.00477377   -0.00622698    0.02446283
     atom   11 type  1   force =     0.00003024   -0.00222566   -0.00796484
     atom   12 type  1   force =    -0.00001971    0.01143940   -0.00386566
     atom   13 type  2   force =    -0.00004684    0.00066713   -0.07886809

     Total force =     0.088069     Total SCF correction =     0.004352

     entering subroutine stress ...

     negative rho (up, down):  7.491E-01 0.000E+00
          total   stress  (Ry/bohr**3)                   (kbar)     P=  -13.52
  -0.00006506   0.00000001   0.00000001         -9.57      0.00      0.00
   0.00000001  -0.00007674  -0.00000151          0.00    -11.29     -0.22
   0.00000001  -0.00000151  -0.00013384          0.00     -0.22    -19.69

     BFGS Geometry Optimization

     number of scf cycles    =   1
     number of bfgs steps    =   0

     energy   new            =   -1221.4796335012 Ry

     new trust radius        =       0.0788709239 bohr
     new conv_thr            =       0.0000099958 Ry

ATOMIC_POSITIONS (crystal)
Zr1      0.166666667   0.166666667   0.396150897    0   0   0
Zr1      0.666666667   0.166666667   0.396150897    0   0   0
Zr1      0.166666667   0.666666667   0.396150897    0   0   0
Zr1      0.666666667   0.666666667   0.396150897    0   0   0
Zr1      0.833333333   0.333333333   0.500000000    0   0   0
Zr1      0.333333333   0.333333333   0.500000000    0   0   0
Zr1      0.833333333   0.833333333   0.500000000    0   0   0
Zr1      0.333333333   0.833333333   0.500000000    0   0   0
Zr1      0.000691897  -0.000595321   0.604362329
Zr1      0.499902869  -0.000592557   0.604361927
Zr1      0.000108388   0.499788207   0.603682133
Zr1      0.499454091   0.501088569   0.603768065
S1       0.249964398   0.000063484   0.685387448

     Writing output data file calc.save
     Check: negative starting charge=   -0.729071
     NEW-OLD atomic charge density approx. for the potential
     Check: negative starting charge=   -0.728926

[...]

     energy   old            =   -1221.4796335012 Ry
     energy   new            =   -1221.4865519800 Ry

     CASE: energy  _new < energy  _old

[...]

     WARNING: bfgs curvature condition failed, Theta= 0.904
     new trust radius        =       0.0346934511 bohr
     new conv_thr            =       0.0000001000 Ry

[...]

     iteration #  1     ecut=    36.75 Ry     beta=0.30
     Davidson diagonalization with overlap
     c_bands:  1 eigenvalues not converged
     ethr =  1.00E-06,  avg # of iterations = 10.0

[...]

     iteration #  1     ecut=    36.75 Ry     beta=0.30
     Davidson diagonalization with overlap
     c_bands:  1 eigenvalues not converged
     ethr =  1.00E-06,  avg # of iterations = 11.4

[...]

     Threshold (ethr) on eigenvalues was too large:
     Diagonalizing with lowered threshold

     Davidson diagonalization with overlap
     ethr =  9.33E-08,  avg # of iterations =  2.4

[...]

     number of scf cycles    =  14
     number of bfgs steps    =  13

     energy   old            =   -1221.5066215813 Ry
     energy   new            =   -1221.5066566911 Ry

     CASE: energy  _new < energy  _old

     new trust radius        =       0.0110299439 bohr
     new conv_thr            =       0.0000001000 Ry

ATOMIC_POSITIONS (crystal)
Zr1      0.166666667   0.166666667   0.396150897    0   0   0
Zr1      0.666666667   0.166666667   0.396150897    0   0   0
Zr1      0.166666667   0.666666667   0.396150897    0   0   0
Zr1      0.666666667   0.666666667   0.396150897    0   0   0
Zr1      0.833333333   0.333333333   0.500000000    0   0   0
Zr1      0.333333333   0.333333333   0.500000000    0   0   0
Zr1      0.833333333   0.833333333   0.500000000    0   0   0
Zr1      0.333333333   0.833333333   0.500000000    0   0   0
Zr1     -0.006728740  -0.008650836   0.599617190
Zr1      0.515299390  -0.008640966   0.599636969
Zr1      0.005488688   0.488992900   0.600532924
Zr1      0.492882201   0.514216773   0.601859958
S1       0.248907356   0.001874662   0.671900384

     Writing output data file calc.save
     Check: negative starting charge=   -0.728254
     NEW-OLD atomic charge density approx. for the potential
     Check: negative starting charge=   -0.728409

[...]

     Self-consistent Calculation

[...]

     Threshold (ethr) on eigenvalues was too large:
     Diagonalizing with lowered threshold

     Davidson diagonalization with overlap
     ethr =  4.37E-08,  avg # of iterations =  4.5

[...]

     total energy              =   -1221.50668938 Ry
     Harris-Foulkes estimate   =   -1221.50668944 Ry
     estimated scf accuracy    <       0.00000010 Ry

     iteration #  9     ecut=    36.75 Ry     beta=0.30
     Davidson diagonalization with overlap
     ethr =  7.00E-11,  avg # of iterations =  3.1

[...]

     negative rho (up, down):  7.486E-01 0.000E+00

     Adding external electric field

     Computed dipole along edir(3) :
        Dipole               -0.1756 Ry au,         -0.4462 Debye
        Dipole field         -0.0004 Ry au

        Potential amp.        0.0337 Ry
        Total length         46.5096 bohr

     End of self-consistent calculation

[...]

          k = 0.0519-0.0599 0.0000 ( 22856 PWs)   bands (ev):

[...]

          k =-0.0779-0.0450 0.0000 ( 22880 PWs)   bands (ev):

   -47.8483 -47.7768 -47.7662 -47.7640 -47.7213 -47.7188 -47.5715 -47.5476
   -47.4170 -47.4138 -47.3599 -47.3260 -25.9923 -25.9850 -25.9666 -25.9497
   -25.9395 -25.9067 -25.8655 -25.8552 -25.8259 -25.8094 -25.7791 -25.7568
   -25.7459 -25.7280 -25.7186 -25.7153 -25.6710 -25.6643 -25.6420 -25.5487
   -25.4674 -25.4626 -25.4613 -25.4468 -25.4175 -25.3864 -25.3567 -25.3468
   -25.3091 -25.2904 -25.2725 -25.2608 -25.2139 -25.1770 -25.1144 -25.0932
   -11.0246  -2.4531  -2.1550  -2.0007  -1.7806  -1.7022  -0.9222  -0.8569
    -0.4441  -0.3862  -0.3194  -0.2836  -0.2194  -0.1373   0.3936   0.4280
     0.4746   0.4812   0.5329   0.5757   0.8831   0.9185   0.9745   0.9923
     1.0339   1.0796   1.2758   1.3129   1.4389   1.4627   1.5310   1.5565
     1.6824   1.7470   1.8939   2.0983   2.2088

     the Fermi energy is     1.4603 ev

!    total energy              =   -1221.50668939 Ry
     Harris-Foulkes estimate   =   -1221.50668919 Ry
     estimated scf accuracy    <       0.00000003 Ry

     The total energy is the sum of the following terms:

     one-electron contribution =   -8564.23003251 Ry
     hartree contribution      =    4275.12183784 Ry
     xc contribution           =    -229.52154739 Ry
     ewald contribution        =    3297.23547577 Ry
     electric field correction =       0.00006367 Ry
     smearing contrib. (-TS)   =      -0.11248677 Ry

     convergence has been achieved in   9 iterations

 BEEF-vdW xc energy contributions
           1 :   -196.541141815712
           2 :    177.759852310602
           3 :   -146.072364789843
           4 :    110.339991675944
           5 :   -78.6037163662448
           6 :    55.3122907341620
           7 :   -40.6073693974302
           8 :    31.6026456667068
           9 :   -24.6538991753143
          10 :    17.3391643520964
          11 :   -9.27632632837674
          12 :    1.66234337824145
          13 :    3.92067135239216
          14 :   -6.63284919822931
          15 :    6.83819381593938
          16 :   -5.77696313386073
          17 :    4.77888535086848
          18 :   -4.54851684387739
          19 :    4.93362143271557
          20 :   -5.24293952613732
          21 :    4.83730407578261
          22 :   -3.58844468534923
          23 :    1.93666345352906
          24 :  -0.566728319014913
          25 :  -4.023497493363948E-002
          26 :  -0.122344372187314
          27 :   0.642671169783995
          28 :  -0.999463438615066
          29 :   0.900437222214208
          30 :  -0.434053499717749
          31 :   -22.8055909284198
          32 :   -16.9673296468139

     Forces acting on atoms (Ry/au):

     negative rho (up, down):  7.486E-01 0.000E+00
     atom    1 type  1   force =     0.00001030   -0.00053401    0.01257632
     atom    2 type  1   force =     0.00001100    0.00150274    0.01417498
     atom    3 type  1   force =     0.00067024   -0.00079950    0.01212703
     atom    4 type  1   force =    -0.00064760   -0.00079944    0.01212023
     atom    5 type  1   force =    -0.00541026    0.00294417   -0.00643684
     atom    6 type  1   force =     0.00543833    0.00292234   -0.00638875
     atom    7 type  1   force =    -0.00002683   -0.00704559   -0.02514011
     atom    8 type  1   force =     0.00002100    0.00313541   -0.01294463
     atom    9 type  1   force =    -0.00160760   -0.00104952   -0.00090040
     atom   10 type  1   force =     0.00156100   -0.00104370   -0.00087536
     atom   11 type  1   force =    -0.00000920    0.00035345    0.00137167
     atom   12 type  1   force =    -0.00001043   -0.00111341    0.00013055
     atom   13 type  2   force =     0.00000006    0.00152705    0.00018530

     Total force =     0.003797     Total SCF correction =     0.000122

     entering subroutine stress ...

     negative rho (up, down):  7.486E-01 0.000E+00
          total   stress  (Ry/bohr**3)                   (kbar)     P=   -5.72
  -0.00000960   0.00000002   0.00000009         -1.41      0.00      0.01
   0.00000002  -0.00006513   0.00000030          0.00     -9.58      0.04
   0.00000009   0.00000030  -0.00004194          0.01      0.04     -6.17

     bfgs converged in  15 scf cycles and  14 bfgs steps
     (criteria: energy <  1.0E+00, force <  1.9E-03)

     End of BFGS Geometry Optimization

     Final energy   =   -1221.5066893864 Ry
Begin final coordinates

ATOMIC_POSITIONS (crystal)
Zr1      0.166666667   0.166666667   0.396150897    0   0   0
Zr1      0.666666667   0.166666667   0.396150897    0   0   0
Zr1      0.166666667   0.666666667   0.396150897    0   0   0
Zr1      0.666666667   0.666666667   0.396150897    0   0   0
Zr1      0.833333333   0.333333333   0.500000000    0   0   0
Zr1      0.333333333   0.333333333   0.500000000    0   0   0
Zr1      0.833333333   0.833333333   0.500000000    0   0   0
Zr1      0.333333333   0.833333333   0.500000000    0   0   0
Zr1     -0.006728740  -0.008650836   0.599617190
Zr1      0.515299390  -0.008640966   0.599636969
Zr1      0.005488688   0.488992900   0.600532924
Zr1      0.492882201   0.514216773   0.601859958
S1       0.248907356   0.001874662   0.671900384
End final coordinates

     Writing output data file calc.save

     General routines

     Parallel routines

   This run was terminated on:  22:14:27   2May2018

   JOB DONE.
Job  /afs/slac/g/suncat/bin/suncat-tsmpirun -x LD_LIBRARY_PATH -wdir /scratch/qe65595_P3o9q pw.x -npool 4 -in pw.inp

TID   HOST_NAME   COMMAND_LINE            STATUS            TERMINATION_TIME
00000 suncat0034 pw.x -npool 4 -i  Done                     05/02/2018 22:14:27
00001 suncat0034 pw.x -npool 4 -i  Done                     05/02/2018 22:14:27
00002 suncat0034 pw.x -npool 4 -i  Done                     05/02/2018 22:14:27
00003 suncat0034 pw.x -npool 4 -i  Done                     05/02/2018 22:14:27
00004 suncat0034 pw.x -npool 4 -i  Done                     05/02/2018 22:14:27
00005 suncat0034 pw.x -npool 4 -i  Done                     05/02/2018 22:14:27
00006 suncat0034 pw.x -npool 4 -i  Done                     05/02/2018 22:14:27
00007 suncat0034 pw.x -npool 4 -i  Done                     05/02/2018 22:14:27
00008 suncat0022 pw.x -npool 4 -i  Done                     05/02/2018 22:14:27
00009 suncat0022 pw.x -npool 4 -i  Done                     05/02/2018 22:14:27
00010 suncat0022 pw.x -npool 4 -i  Done                     05/02/2018 22:14:27
00011 suncat0022 pw.x -npool 4 -i  Done                     05/02/2018 22:14:27
00012 suncat0022 pw.x -npool 4 -i  Done                     05/02/2018 22:14:27
00013 suncat0022 pw.x -npool 4 -i  Done                     05/02/2018 22:14:27
00014 suncat0022 pw.x -npool 4 -i  Done                     05/02/2018 22:14:27
00015 suncat0022 pw.x -npool 4 -i  Done                     05/02/2018 22:14:27
00016 suncat0251 pw.x -npool 4 -i  Done                     05/02/2018 22:14:27
00017 suncat0251 pw.x -npool 4 -i  Done                     05/02/2018 22:14:27
00018 suncat0251 pw.x -npool 4 -i  Done                     05/02/2018 22:14:27
00019 suncat0251 pw.x -npool 4 -i  Done                     05/02/2018 22:14:27
00020 suncat0251 pw.x -npool 4 -i  Done                     05/02/2018 22:14:27
00021 suncat0251 pw.x -npool 4 -i  Done                     05/02/2018 22:14:27
00022 suncat0251 pw.x -npool 4 -i  Done                     05/02/2018 22:14:27
00023 suncat0251 pw.x -npool 4 -i  Done                     05/02/2018 22:14:27
00024 suncat0211 pw.x -npool 4 -i  Done                     05/02/2018 22:14:27
00025 suncat0211 pw.x -npool 4 -i  Done                     05/02/2018 22:14:27
00026 suncat0211 pw.x -npool 4 -i  Done                     05/02/2018 22:14:27
00027 suncat0211 pw.x -npool 4 -i  Done                     05/02/2018 22:14:27
00028 suncat0211 pw.x -npool 4 -i  Done                     05/02/2018 22:14:27
00029 suncat0211 pw.x -npool 4 -i  Done                     05/02/2018 22:14:27
00030 suncat0211 pw.x -npool 4 -i  Done                     05/02/2018 22:14:27
00031 suncat0211 pw.x -npool 4 -i  Done                     05/02/2018 22:14:27