     Program PWSCF v.5.1rc2 (svn rev. 11289) starts on 30Apr2018 at 16:40:11

     Current dimensions of program PWSCF are:
     Max number of different atomic species (ntypx) = 10
     Max number of k-points (npk) =  40000
     Max angular momentum in pseudopotentials (lmaxx) =  3
     Presently stress not available with electric field

     IMPORTANT: XC functional enforced from input :
     Exchange-correlation      = BEEF-VDW ( 1  4 27 13 2)
     Any further DFT definition will be discarded
     Please, verify this is what you really want

     Subspace diagonalization in iterative solution of the eigenvalue problem:
     a serial algorithm will be used

     bravais-lattice index     =            0
     lattice parameter (alat)  =       1.8897  a.u.
     unit-cell volume          =    4650.5773 (a.u.)^3
     number of atoms/cell      =           13
     number of atomic types    =            2
     number of electrons       =        41.00
     number of Kohn-Sham states=           30
     kinetic-energy cutoff     =      36.7493  Ry
     charge density cutoff     =     367.4932  Ry
     convergence threshold     =      1.0E-05
     mixing beta               =       0.3000
     number of iterations used =           10  plain     mixing
     Exchange-correlation      = BEEF-VDW ( 1  4 27 13 2)
     nstep                     =           50

     celldm(1)=   1.889726  celldm(2)=   0.000000  celldm(3)=   0.000000
     celldm(4)=   0.000000  celldm(5)=   0.000000  celldm(6)=   0.000000

     crystal axes: (cart. coord. in units of alat)
               a(1) = (   5.682886   0.000000   0.000000 )
               a(2) = (   2.841443   4.921524   0.000000 )
               a(3) = (   0.000000   0.000000  24.640057 )

     reciprocal axes: (cart. coord. in units 2 pi/alat)
               b(1) = (  0.175967 -0.101595  0.000000 )
               b(2) = (  0.000000  0.203189  0.000000 )
               b(3) = (  0.000000  0.000000  0.040584 )

     PseudoPot. # 1 for Al read from file:
     /u/if/mamunm/psp/gbrv1.5pbe/Al.UPF
     MD5 check sum: 0a6289f5291fc8f409219462bc851e1f
     Pseudo is Ultrasoft + core correction, Zval =  3.0
     Generated by new atomic code, or converted to UPF format
     Using radial grid of  893 points,  3 beta functions with:
                l(1) =   0
                l(2) =   1
                l(3) =   2
     Q(r) pseudized with  8 coefficients,  rinner =    0.900   0.900   0.900
                                                       0.900   0.900

     PseudoPot. # 2 for N  read from file:
     /u/if/mamunm/psp/gbrv1.5pbe/N.UPF
     MD5 check sum: 95339753478d7afb44899504a8723017
     Pseudo is Ultrasoft + core correction, Zval =  5.0
     Generated by new atomic code, or converted to UPF format
     Using radial grid of  729 points,  4 beta functions with:
                l(1) =   0
                l(2) =   0
                l(3) =   1
                l(4) =   1
     Q(r) pseudized with  8 coefficients,  rinner =    0.900   0.900   0.900

     vdW kernel table read from file vdW_kernel_table
     MD5 check sum: 095c7af220d748ca6e76c0b4c6cfb241

     atomic species   valence    mass     pseudopotential
        Al1            3.00    26.98154     Al( 1.00)
        N1             5.00    14.00700     N ( 1.00)

     No symmetry found

   Cartesian axes

     site n.     atom                  positions (alat units)
         1           Al1 tau(   1) = (   1.4207216   0.8202540  10.0000000  )
         2           Al1 tau(   2) = (   4.2621647   0.8202540  10.0000000  )
         3           Al1 tau(   3) = (   2.8414431   3.2810159  10.0000000  )
         4           Al1 tau(   4) = (   5.6828862   3.2810159  10.0000000  )
         5           Al1 tau(   5) = (   5.6828862   1.6405079  12.3200286  )
         6           Al1 tau(   6) = (   2.8414431   1.6405079  12.3200286  )
         7           Al1 tau(   7) = (   7.1036078   4.1012699  12.3200286  )
         8           Al1 tau(   8) = (   4.2621647   4.1012699  12.3200286  )
         9           Al1 tau(   9) = (   0.0000000   0.0000000  14.6400572  )
        10           Al1 tau(  10) = (   2.8414431   0.0000000  14.6400572  )
        11           Al1 tau(  11) = (   1.4207216   2.4607619  14.6400572  )
        12           Al1 tau(  12) = (   4.2621647   2.4607619  14.6400572  )
        13           N1  tau(  13) = (   0.0000000   0.0000000  16.2720572  )

     number of k points=    20  Fermi-Dirac smearing, width (Ry)=  0.0110
                       cart. coord. in units 2pi/alat
        k(    1) = (   0.0000000   0.0000000   0.0000000), wk =   0.0555556
        k(    2) = (   0.0000000   0.0338648   0.0000000), wk =   0.1111111
        k(    3) = (   0.0000000   0.0677297   0.0000000), wk =   0.1111111
        k(    4) = (   0.0000000  -0.1015945   0.0000000), wk =   0.0555556
        k(    5) = (   0.0293278  -0.0169324   0.0000000), wk =   0.1111111
        k(    6) = (   0.0293278   0.0169324   0.0000000), wk =   0.1111111
        k(    7) = (   0.0293278   0.0507973   0.0000000), wk =   0.1111111
        k(    8) = (   0.0293278  -0.1185270   0.0000000), wk =   0.1111111
        k(    9) = (   0.0293278  -0.0846621   0.0000000), wk =   0.1111111
        k(   10) = (   0.0293278  -0.0507973   0.0000000), wk =   0.1111111
        k(   11) = (   0.0586556  -0.0338648   0.0000000), wk =   0.1111111
        k(   12) = (   0.0586556   0.0000000   0.0000000), wk =   0.1111111
        k(   13) = (   0.0586556   0.0338648   0.0000000), wk =   0.1111111
        k(   14) = (   0.0586556  -0.1354594   0.0000000), wk =   0.1111111
        k(   15) = (   0.0586556  -0.1015945   0.0000000), wk =   0.1111111
        k(   16) = (   0.0586556  -0.0677297   0.0000000), wk =   0.1111111
        k(   17) = (  -0.0879835   0.0507973   0.0000000), wk =   0.0555556
        k(   18) = (  -0.0879835   0.0846621   0.0000000), wk =   0.1111111
        k(   19) = (  -0.0879835   0.1185270   0.0000000), wk =   0.1111111
        k(   20) = (  -0.0879835  -0.0507973   0.0000000), wk =   0.0555556

     Largest allocated arrays     est. size (Mb)     dimensions
     Largest temporary arrays     est. size (Mb)     dimensions

     Initial potential from superposition of free atoms
     Check: negative starting charge=   -0.000166

     starting charge   40.97041, renormalised to   41.00000

     negative rho (up, down):  1.666E-04 0.000E+00

     *
     * You are using vdW-DF for exchange-correlation in this calculation.
     * Please cite the following three references that made this development
     * possible:
     *
     *   M. Dion, H. Rydberg, E. Schroder, D. C. Langreth, and
     *   B. I. Lundqvist, Phys. Rev. Lett. 92, 246401 (2004).
     *
     *   T. Thonhauser, V. R. Cooper, S. Li, A. Puzder, P. Hyldgaard, and
     *   D. C. Langreth, Phys. Rev. B 76, 125112 (2007).
     *
     *   G. Roman-Perez and J. M. Soler, Phys. Rev. Lett. 103, 096102 (2009).
     *
     *
     * If you are using vdW-DF2, please also cite:
     *
     *   K. Lee, E. D. Murray, L. Kong, B. I. Lundqvist, and
     *   D. C. Langreth, Phys. Rev. B 82, 081101(R) (2010).
     *
     *
     * If you are calculating the stress with vdW-DF, please also cite:
     *
     *   R. Sabatini, E. Kucukbenli, B. Kolb, T. Thonhauser, and
     *   S. de Gironcoli, J. Phys.: Condens. Matter 24, 424209 (2012).
     *

     Carrying out vdW-DF run using the following parameters:

     Nqs =      20    Nr_points =    1024   r_max =   100.000
     q_mesh =
               0.00001000     0.04494208     0.09755937     0.15916263
               0.23128650     0.31572767     0.41458969     0.53033537
               0.66584808     0.82450364     1.01025438     1.22772762
               1.48234092     1.78043706     2.12944203     2.53805004
               3.01644009     3.57652955     4.23227104     5.00000000

     Gradients computed in reciprocal space

     Adding external electric field

     Computed dipole along edir(3) :
        Dipole               -0.0269 Ry au,         -0.0684 Debye
        Dipole field         -0.0001 Ry au

        Potential amp.        0.0066 Ry
        Total length         45.3989 bohr

     Starting wfc are   52 randomized atomic wfcs

     Self-consistent Calculation

     iteration #  1     ecut=    36.75 Ry     beta=0.30
     Davidson diagonalization with overlap
     ethr =  1.00E-02,  avg # of iterations =  3.0

[...]

     total energy              =    -101.02678401 Ry
     Harris-Foulkes estimate   =    -102.87939449 Ry
     estimated scf accuracy    <       4.05595044 Ry

[...]

     End of self-consistent calculation

          k = 0.0000 0.0000 0.0000 ( 17579 PWs)   bands (ev):

   -14.3929 -12.1024 -10.2776  -7.4966  -6.2542  -6.2542  -6.2294  -6.1892
    -6.1892  -6.1572  -4.9495  -4.9495  -4.8511  -4.4085  -4.3112  -4.3112
    -4.0979  -2.8342  -2.6518  -2.6518  -1.8087  -1.8087  -1.7804  -0.8795
    -0.8487  -0.8487  -0.2569   1.1522   1.2145   1.2145

[...]

          k =-0.0880 0.0508 0.0000 ( 17464 PWs)   bands (ev):

[...]

     the Fermi energy is    -1.5230 ev

!    total energy              =    -102.47560688 Ry
     Harris-Foulkes estimate   =    -102.47555957 Ry
     estimated scf accuracy    <       0.00000570 Ry

     The total energy is the sum of the following terms:

     one-electron contribution =    -739.36213523 Ry
     hartree contribution      =     377.67334079 Ry
     xc contribution           =     -58.56594083 Ry
     ewald contribution        =     317.81327431 Ry
     electric field correction =       0.00141751 Ry
     smearing contrib. (-TS)   =      -0.03556343 Ry

     convergence has been achieved in  13 iterations

 BEEF-vdW xc energy contributions
           1 :   -48.1555228244658
           2 :    41.3263629348441
           3 :   -30.8556732746890
           4 :    20.8763555955872
           5 :   -14.0257383643646
           6 :    10.4761349208590
           7 :   -8.72289726868128
           8 :    7.19815278322001
           9 :   -5.39162658491585
          10 :    3.78595250964670
          11 :   -2.98615021339155
          12 :    2.98186812177784
          13 :   -3.16463443831448
          14 :    2.92857178481513
          15 :   -2.19505827714534
          16 :    1.38174905021479
          17 :  -0.923860693976778
          18 :   0.858708959256262
          19 :  -0.857388770200643
          20 :   0.604095087961362
          21 :  -0.108810205786625
          22 :  -0.338915083754202
          23 :   0.483351562488245
          24 :  -0.350552578270438
          25 :   0.198662352805464
          26 :  -0.250558176071308
          27 :   0.487454432115214
          28 :  -0.694507499052975
          29 :   0.689105991388317
          30 :  -0.497217421585496
          31 :   -7.12532457477698
          32 :   -5.17269844650934

     Forces acting on atoms (Ry/au):

     negative rho (up, down):  7.043E-04 0.000E+00
     atom    1 type  1   force =    -0.00031236   -0.00018103   -0.00111117
     atom    2 type  1   force =     0.00031305   -0.00018062   -0.00111128
     atom    3 type  1   force =     0.00000020    0.00036189   -0.00111080
     atom    4 type  1   force =    -0.00000003   -0.00000012   -0.00049033
     atom    5 type  1   force =    -0.00000074   -0.00333079    0.00310855
     atom    6 type  1   force =    -0.00000012   -0.00000057   -0.00257126
     atom    7 type  1   force =     0.00288434    0.00166570    0.00310784
     atom    8 type  1   force =    -0.00288466    0.00166517    0.00310842
     atom    9 type  1   force =     0.00000028   -0.00000033   -0.19230565
     atom   10 type  1   force =    -0.00000013   -0.00503586    0.00885691
     atom   11 type  1   force =    -0.00436157    0.00251792    0.00885714
     atom   12 type  1   force =     0.00436117    0.00251772    0.00885720
     atom   13 type  2   force =     0.00000057    0.00000092    0.16280444

     Total force =     0.252583     Total SCF correction =     0.003388

     entering subroutine stress ...

     negative rho (up, down):  7.043E-04 0.000E+00
          total   stress  (Ry/bohr**3)                   (kbar)     P=   -0.99
  -0.00006380   0.00000000  -0.00000000         -9.38      0.00     -0.00
   0.00000000  -0.00006380  -0.00000000          0.00     -9.38     -0.00
  -0.00000000  -0.00000000   0.00010750         -0.00     -0.00     15.81

     BFGS Geometry Optimization

     number of scf cycles    =   1
     number of bfgs steps    =   0

     energy   new            =    -102.4756068785 Ry

     new trust radius        =       0.1923056527 bohr
     new conv_thr            =       0.0000099958 Ry

ATOMIC_POSITIONS (crystal)
Al1      0.166666667   0.166666667   0.405843214    0   0   0
Al1      0.666666667   0.166666667   0.405843214    0   0   0
Al1      0.166666667   0.666666667   0.405843214    0   0   0
Al1      0.666666667   0.666666667   0.405843214    0   0   0
Al1      0.833333333   0.333333333   0.500000000    0   0   0
Al1      0.333333333   0.333333333   0.500000000    0   0   0
Al1      0.833333333   0.833333333   0.500000000    0   0   0
Al1      0.333333333   0.833333333   0.500000000    0   0   0
Al1      0.000000044  -0.000000035   0.590026772
Al1      0.500270723  -0.000541471   0.594347000
Al1     -0.000541506   0.500270735   0.594347004
Al1      0.500270746   0.500270713   0.594347006
N1       0.000000003   0.000000099   0.663886835

     Writing output data file calc.save
     Check: negative starting charge=   -0.000166
     NEW-OLD atomic charge density approx. for the potential
     Check: negative starting charge=   -0.000167

[...]

     energy   old            =    -102.4756068785 Ry
     energy   new            =    -102.4961739857 Ry

     CASE: energy  _new < energy  _old

[...]

     Threshold (ethr) on eigenvalues was too large:
     Diagonalizing with lowered threshold

     Davidson diagonalization with overlap
     ethr =  5.27E-08,  avg # of iterations =  1.4

[...]

     Total force =     0.002735     Total SCF correction =     0.000052

[...]

     number of scf cycles    =  12
     number of bfgs steps    =  11

     energy   old            =    -102.5071244691 Ry
     energy   new            =    -102.5071706911 Ry

     CASE: energy  _new < energy  _old

     new trust radius        =       0.0028275385 bohr
     new conv_thr            =       0.0000001000 Ry

ATOMIC_POSITIONS (crystal)
Al1      0.166666667   0.166666667   0.405843214    0   0   0
Al1      0.666666667   0.166666667   0.405843214    0   0   0
Al1      0.166666667   0.666666667   0.405843214    0   0   0
Al1      0.666666667   0.666666667   0.405843214    0   0   0
Al1      0.833333333   0.333333333   0.500000000    0   0   0
Al1      0.333333333   0.333333333   0.500000000    0   0   0
Al1      0.833333333   0.833333333   0.500000000    0   0   0
Al1      0.333333333   0.833333333   0.500000000    0   0   0
Al1      0.000000099  -0.000000277   0.583062443
Al1      0.501430233  -0.002860533   0.600035339
Al1     -0.002860384   0.501429985   0.600035329
Al1      0.501430357   0.501430003   0.600035336
N1      -0.000000469   0.000001020   0.654808170

     Writing output data file calc.save
     Check: negative starting charge=   -0.000165
     NEW-OLD atomic charge density approx. for the potential
     Check: negative starting charge=   -0.000165

[...]

     Self-consistent Calculation

[...]

     Threshold (ethr) on eigenvalues was too large:
     Diagonalizing with lowered threshold

     Davidson diagonalization with overlap
     ethr =  1.51E-08,  avg # of iterations =  1.7

[...]

     total energy              =    -102.50717563 Ry
     Harris-Foulkes estimate   =    -102.50717690 Ry
     estimated scf accuracy    <       0.00000040 Ry

     iteration #  5     ecut=    36.75 Ry     beta=0.30
     Davidson diagonalization with overlap
     ethr =  9.74E-10,  avg # of iterations =  2.0

[...]

     negative rho (up, down):  6.667E-04 0.000E+00

     Adding external electric field

     Computed dipole along edir(3) :
        Dipole               -0.5710 Ry au,         -1.4514 Debye
        Dipole field         -0.0015 Ry au

        Potential amp.        0.1401 Ry
        Total length         45.3989 bohr

     End of self-consistent calculation

[...]

          k = 0.0587-0.0677 0.0000 ( 17495 PWs)   bands (ev):

[...]

          k =-0.0880-0.0508 0.0000 ( 17464 PWs)   bands (ev):

   -14.0981 -10.4067 -10.3492  -8.7253  -8.4913  -7.4513  -7.4182  -6.2115
    -5.9808  -5.8605  -5.4447  -3.6626  -3.4389  -3.3161  -2.8880  -2.0685
    -1.9694  -1.9171  -1.5357  -1.5111  -1.1808  -1.1277  -0.2961  -0.0175
     0.0643   0.2982   0.5584   0.7788   0.8284   1.3872

     the Fermi energy is    -1.2956 ev

!    total energy              =    -102.50717565 Ry
     Harris-Foulkes estimate   =    -102.50717711 Ry
     estimated scf accuracy    <       0.00000010 Ry

     The total energy is the sum of the following terms:

     one-electron contribution =    -742.28629118 Ry
     hartree contribution      =     379.35304794 Ry
     xc contribution           =     -58.44973749 Ry
     ewald contribution        =     318.91008069 Ry
     electric field correction =       0.00088109 Ry
     smearing contrib. (-TS)   =      -0.03515668 Ry

     convergence has been achieved in   5 iterations

 BEEF-vdW xc energy contributions
           1 :   -48.0500438750952
           2 :    41.2238542518070
           3 :   -30.7460610492521
           4 :    20.7475915983703
           5 :   -13.8762859997556
           6 :    10.3113161207110
           7 :   -8.54480035027954
           8 :    7.00177979083766
           9 :   -5.16799286851452
          10 :    3.52624125387980
          11 :   -2.68330191362261
          12 :    2.63198547500609
          13 :   -2.77067195728226
          14 :    2.50373710137669
          15 :   -1.75981919918057
          16 :   0.953698765259070
          17 :  -0.509651663129397
          18 :   0.456273468570686
          19 :  -0.465075396933628
          20 :   0.226707810230174
          21 :   0.245537886643646
          22 :  -0.666934725872174
          23 :   0.789873150581272
          24 :  -0.642439162987671
          25 :   0.475548096688222
          26 :  -0.502270414755955
          27 :   0.701980797433500
          28 :  -0.869710288095064
          29 :   0.835896261576096
          30 :  -0.629816847516807
          31 :   -7.11856783358242
          32 :   -5.16560648391164

     Forces acting on atoms (Ry/au):

     negative rho (up, down):  6.667E-04 0.000E+00
     atom    1 type  1   force =    -0.00085757   -0.00049513   -0.00051763
     atom    2 type  1   force =     0.00085757   -0.00049512   -0.00051764
     atom    3 type  1   force =    -0.00000000    0.00099026   -0.00051763
     atom    4 type  1   force =    -0.00000000   -0.00000003   -0.00032574
     atom    5 type  1   force =    -0.00000000    0.01125417   -0.00301681
     atom    6 type  1   force =     0.00000000   -0.00000004    0.00906121
     atom    7 type  1   force =    -0.00974644   -0.00562712   -0.00301693
     atom    8 type  1   force =     0.00974643   -0.00562711   -0.00301691
     atom    9 type  1   force =    -0.00000001   -0.00000025    0.00122677
     atom   10 type  1   force =    -0.00000001   -0.00005600    0.00042391
     atom   11 type  1   force =    -0.00004848    0.00002772    0.00042392
     atom   12 type  1   force =     0.00004846    0.00002772    0.00042391
     atom   13 type  2   force =     0.00000006    0.00000091   -0.00063043

     Total force =     0.001566     Total SCF correction =     0.000212
     SCF correction compared to forces is large: reduce conv_thr to get better values

     entering subroutine stress ...

     negative rho (up, down):  6.667E-04 0.000E+00
          total   stress  (Ry/bohr**3)                   (kbar)     P=   -7.14
  -0.00007427   0.00000000   0.00000000        -10.93      0.00      0.00
   0.00000000  -0.00007427   0.00000000          0.00    -10.93      0.00
   0.00000000   0.00000000   0.00000303          0.00      0.00      0.45

     bfgs converged in  13 scf cycles and  12 bfgs steps
     (criteria: energy <  1.0E+00, force <  1.9E-03)

     End of BFGS Geometry Optimization

     Final energy   =    -102.5071756472 Ry
Begin final coordinates

ATOMIC_POSITIONS (crystal)
Al1      0.166666667   0.166666667   0.405843214    0   0   0
Al1      0.666666667   0.166666667   0.405843214    0   0   0
Al1      0.166666667   0.666666667   0.405843214    0   0   0
Al1      0.666666667   0.666666667   0.405843214    0   0   0
Al1      0.833333333   0.333333333   0.500000000    0   0   0
Al1      0.333333333   0.333333333   0.500000000    0   0   0
Al1      0.833333333   0.833333333   0.500000000    0   0   0
Al1      0.333333333   0.833333333   0.500000000    0   0   0
Al1      0.000000099  -0.000000277   0.583062443
Al1      0.501430233  -0.002860533   0.600035339
Al1     -0.002860384   0.501429985   0.600035329
Al1      0.501430357   0.501430003   0.600035336
N1      -0.000000469   0.000001020   0.654808170
End final coordinates

     Writing output data file calc.save

     General routines

     Parallel routines

   This run was terminated on:  17: 9: 6  30Apr2018

   JOB DONE.
Job  /afs/slac/g/suncat/bin/suncat-tsmpirun -x LD_LIBRARY_PATH -wdir /scratch/qe520232_6WjdN pw.x -npool 4 -in pw.inp

TID   HOST_NAME   COMMAND_LINE            STATUS            TERMINATION_TIME
00000 suncat0091 pw.x -npool 4 -i  Done                     04/30/2018 17:09:06
00001 suncat0091 pw.x -npool 4 -i  Done                     04/30/2018 17:09:06
00002 suncat0091 pw.x -npool 4 -i  Done                     04/30/2018 17:09:06
00003 suncat0091 pw.x -npool 4 -i  Done                     04/30/2018 17:09:06
00004 suncat0091 pw.x -npool 4 -i  Done                     04/30/2018 17:09:06
00005 suncat0091 pw.x -npool 4 -i  Done                     04/30/2018 17:09:06
00006 suncat0091 pw.x -npool 4 -i  Done                     04/30/2018 17:09:06
00007 suncat0091 pw.x -npool 4 -i  Done                     04/30/2018 17:09:06
00008 suncat0090 pw.x -npool 4 -i  Done                     04/30/2018 17:09:06
00009 suncat0090 pw.x -npool 4 -i  Done                     04/30/2018 17:09:06
00010 suncat0090 pw.x -npool 4 -i  Done                     04/30/2018 17:09:06
00011 suncat0090 pw.x -npool 4 -i  Done                     04/30/2018 17:09:06
00012 suncat0090 pw.x -npool 4 -i  Done                     04/30/2018 17:09:06
00013 suncat0090 pw.x -npool 4 -i  Done                     04/30/2018 17:09:06
00014 suncat0090 pw.x -npool 4 -i  Done                     04/30/2018 17:09:06
00015 suncat0090 pw.x -npool 4 -i  Done                     04/30/2018 17:09:06
00016 suncat0057 pw.x -npool 4 -i  Done                     04/30/2018 17:09:06
00017 suncat0057 pw.x -npool 4 -i  Done                     04/30/2018 17:09:06
00018 suncat0057 pw.x -npool 4 -i  Done                     04/30/2018 17:09:06
00019 suncat0057 pw.x -npool 4 -i  Done                     04/30/2018 17:09:06
00020 suncat0057 pw.x -npool 4 -i  Done                     04/30/2018 17:09:06
00021 suncat0057 pw.x -npool 4 -i  Done                     04/30/2018 17:09:06
00022 suncat0057 pw.x -npool 4 -i  Done                     04/30/2018 17:09:06
00023 suncat0057 pw.x -npool 4 -i  Done                     04/30/2018 17:09:06
00024 suncat0036 pw.x -npool 4 -i  Done                     04/30/2018 17:09:06
00025 suncat0036 pw.x -npool 4 -i  Done                     04/30/2018 17:09:06
00026 suncat0036 pw.x -npool 4 -i  Done                     04/30/2018 17:09:06
00027 suncat0036 pw.x -npool 4 -i  Done                     04/30/2018 17:09:06
00028 suncat0036 pw.x -npool 4 -i  Done                     04/30/2018 17:09:06
00029 suncat0036 pw.x -npool 4 -i  Done                     04/30/2018 17:09:06
00030 suncat0036 pw.x -npool 4 -i  Done                     04/30/2018 17:09:06
00031 suncat0036 pw.x -npool 4 -i  Done                     04/30/2018 17:09:06