     Program PWSCF v.5.1rc2 (svn rev. 11289) starts on 11Jan2019 at 21:22:18

     Current dimensions of program PWSCF are:
     Max number of different atomic species (ntypx) = 10
     Max number of k-points (npk) =  40000
     Max angular momentum in pseudopotentials (lmaxx) =  3

     IMPORTANT: XC functional enforced from input :
     Exchange-correlation      = BEEF-VDW ( 1  4 27 13 2)
     Any further DFT definition will be discarded
     Please, verify this is what you really want

     Subspace diagonalization in iterative solution of the eigenvalue problem:
     a serial algorithm will be used

     bravais-lattice index     =            0
     lattice parameter (alat)  =      11.8187  a.u.
     unit-cell volume          =    5739.2980 (a.u.)^3
     number of atoms/cell      =           13
     number of atomic types    =            2
     number of electrons       =       150.00
     number of Kohn-Sham states=           85
     kinetic-energy cutoff     =      36.7493  Ry
     charge density cutoff     =     367.4933  Ry
     convergence threshold     =      1.0E-04
     mixing beta               =       0.2000
     number of iterations used =            8  plain     mixing
     Exchange-correlation      = BEEF-VDW ( 1  4 27 13 2)
     nstep                     =           50

     celldm(1)=  11.818741  celldm(2)=   0.000000  celldm(3)=   0.000000
     celldm(4)=   0.000000  celldm(5)=   0.000000  celldm(6)=   0.000000

     crystal axes: (cart. coord. in units of alat)
               a(1) = (   1.000000   0.000000   0.000000 )
               a(2) = (   0.500000   0.866025   0.000000 )
               a(3) = (   0.000000   0.000000   4.014343 )

     reciprocal axes: (cart. coord. in units 2 pi/alat)
               b(1) = (  1.000000 -0.577350  0.000000 )
               b(2) = (  0.000000  1.154701  0.000000 )
               b(3) = (  0.000000  0.000000  0.249107 )

     PseudoPot. # 1 for Cd read from file:
     /u/if/jboes/code/decaf-espresso/gbrv15pbe/Cd.UPF
     MD5 check sum: 17164a7926edb8e0dc231208abae86a6
     Pseudo is Ultrasoft + core correction, Zval = 12.0
     Generated by new atomic code, or converted to UPF format
     Using radial grid of  889 points,  6 beta functions with:
                l(1) =   0
                l(2) =   0
                l(3) =   1
                l(4) =   1
                l(5) =   2
                l(6) =   2
     Q(r) pseudized with  6 coefficients,  rinner =    1.000   1.000   1.000
                                                       1.000   1.000

     PseudoPot. # 2 for S  read from file:
     /u/if/jboes/code/decaf-espresso/gbrv15pbe/S.UPF
     MD5 check sum: 88d86576ff6df21479756cfb9bdac1df
     Pseudo is Ultrasoft + core correction, Zval =  6.0
     Generated by new atomic code, or converted to UPF format
     Using radial grid of  907 points,  6 beta functions with:
                l(1) =   0
                l(2) =   0
                l(3) =   1
                l(4) =   1
                l(5) =   2
                l(6) =   2
     Q(r) pseudized with  8 coefficients,  rinner =    1.300   1.300   1.300
                                                       1.300   1.300

     vdW kernel table read from file vdW_kernel_table
     MD5 check sum: 095c7af220d748ca6e76c0b4c6cfb241

     atomic species   valence    mass     pseudopotential
        Cd            12.00   112.41400     Cd( 1.00)
        S              6.00    32.06000     S ( 1.00)

     No symmetry found

   Cartesian axes

     site n.     atom                  positions (alat units)
         1           Cd  tau(   1) = (   0.2500000   0.1443376   1.5989234  )
         2           Cd  tau(   2) = (   0.7500000   0.1443376   1.5989234  )
         3           Cd  tau(   3) = (   0.5000000   0.5773503   1.5989234  )
         4           Cd  tau(   4) = (   1.0000000   0.5773503   1.5989234  )
         5           Cd  tau(   5) = (   1.0000000   0.2886751   2.0071717  )
         6           Cd  tau(   6) = (   0.5000000   0.2886751   2.0071717  )
         7           Cd  tau(   7) = (   1.2500000   0.7216878   2.0071717  )
         8           Cd  tau(   8) = (   0.7500000   0.7216878   2.0071717  )
         9           Cd  tau(   9) = (  -0.0166615  -0.0096191   2.5023037  )
        10           Cd  tau(  10) = (   0.5166785  -0.0096277   2.5024897  )
        11           Cd  tau(  11) = (   0.2500085   0.4522628   2.5025294  )
        12           Cd  tau(  12) = (   0.7499611   0.4329897   2.4269519  )
        13           S   tau(  13) = (   0.2498430   0.1442390   2.7719090  )

     number of k points=    20  Fermi-Dirac smearing, width (Ry)=  0.0110
                       cart. coord. in units 2pi/alat
        k(    1) = (   0.0000000   0.0000000   0.0000000), wk =   0.0555556
        k(    2) = (   0.0000000   0.1924501   0.0000000), wk =   0.1111111
        k(    3) = (   0.0000000   0.3849002   0.0000000), wk =   0.1111111
        k(    4) = (   0.0000000  -0.5773503   0.0000000), wk =   0.0555556
        k(    5) = (   0.1666667  -0.0962250   0.0000000), wk =   0.1111111
        k(    6) = (   0.1666667   0.0962250   0.0000000), wk =   0.1111111
        k(    7) = (   0.1666667   0.2886751   0.0000000), wk =   0.1111111
        k(    8) = (   0.1666667  -0.6735753   0.0000000), wk =   0.1111111
        k(    9) = (   0.1666667  -0.4811252   0.0000000), wk =   0.1111111
        k(   10) = (   0.1666667  -0.2886751   0.0000000), wk =   0.1111111
        k(   11) = (   0.3333333  -0.1924501   0.0000000), wk =   0.1111111
        k(   12) = (   0.3333333   0.0000000   0.0000000), wk =   0.1111111
        k(   13) = (   0.3333333   0.1924501   0.0000000), wk =   0.1111111
        k(   14) = (   0.3333333  -0.7698004   0.0000000), wk =   0.1111111
        k(   15) = (   0.3333333  -0.5773503   0.0000000), wk =   0.1111111
        k(   16) = (   0.3333333  -0.3849002   0.0000000), wk =   0.1111111
        k(   17) = (  -0.5000000   0.2886751   0.0000000), wk =   0.0555556
        k(   18) = (  -0.5000000   0.4811252   0.0000000), wk =   0.1111111
        k(   19) = (  -0.5000000   0.6735753   0.0000000), wk =   0.1111111
        k(   20) = (  -0.5000000  -0.2886751   0.0000000), wk =   0.0555556

     Largest allocated arrays     est. size (Mb)     dimensions
     Largest temporary arrays     est. size (Mb)     dimensions

     Initial potential from superposition of free atoms
     Check: negative starting charge=   -0.261307

     starting charge  143.99947, renormalised to  150.00000

     negative rho (up, down):  2.722E-01 0.000E+00

     *
     * You are using vdW-DF for exchange-correlation in this calculation.
     * Please cite the following three references that made this development
     * possible:
     *
     *   M. Dion, H. Rydberg, E. Schroder, D. C. Langreth, and
     *   B. I. Lundqvist, Phys. Rev. Lett. 92, 246401 (2004).
     *
     *   T. Thonhauser, V. R. Cooper, S. Li, A. Puzder, P. Hyldgaard, and
     *   D. C. Langreth, Phys. Rev. B 76, 125112 (2007).
     *
     *   G. Roman-Perez and J. M. Soler, Phys. Rev. Lett. 103, 096102 (2009).
     *
     *
     * If you are using vdW-DF2, please also cite:
     *
     *   K. Lee, E. D. Murray, L. Kong, B. I. Lundqvist, and
     *   D. C. Langreth, Phys. Rev. B 82, 081101(R) (2010).
     *
     *
     * If you are calculating the stress with vdW-DF, please also cite:
     *
     *   R. Sabatini, E. Kucukbenli, B. Kolb, T. Thonhauser, and
     *   S. de Gironcoli, J. Phys.: Condens. Matter 24, 424209 (2012).
     *

     Carrying out vdW-DF run using the following parameters:

     Nqs =      20    Nr_points =    1024   r_max =   100.000
     q_mesh =
               0.00001000     0.04494208     0.09755937     0.15916263
               0.23128650     0.31572767     0.41458969     0.53033537
               0.66584808     0.82450364     1.01025438     1.22772762
               1.48234092     1.78043706     2.12944203     2.53805004
               3.01644009     3.57652955     4.23227104     5.00000000

     Gradients computed in reciprocal space

     Adding external electric field

     Computed dipole along edir(3) :
        Dipole               -2.1923 Ry au,         -5.5723 Debye
        Dipole field         -0.0048 Ry au

        Potential amp.        0.4099 Ry
        Total length         42.7000 bohr

     Starting wfc are  112 randomized atomic wfcs

     Self-consistent Calculation

     iteration #  1     ecut=    36.75 Ry     beta=0.20
     Davidson diagonalization with overlap
     ethr =  1.00E-02,  avg # of iterations =  5.1

[...]

     total energy              =   -1412.57320688 Ry
     Harris-Foulkes estimate   =   -1418.16416224 Ry
     estimated scf accuracy    <      16.15621348 Ry

[...]

     End of self-consistent calculation

          k = 0.0000 0.0000 0.0000 ( 21643 PWs)   bands (ev):

   -12.1393  -9.4581  -9.4457  -9.4457  -9.3132  -9.2958  -9.2767  -9.2767
    -9.2580  -9.2580  -9.2571  -9.1884  -9.1463  -9.1461  -9.0532  -8.9850
    -8.9695  -8.9695  -8.9360  -8.9251  -8.9251  -8.8472  -8.8472  -8.8051
    -8.8049  -8.7626  -8.7614  -8.7614  -8.6998  -8.6996  -8.6450  -8.5134
    -8.5133  -8.4690  -8.4689  -8.3744  -8.3723  -8.3721  -8.3714  -8.3562
    -8.3318  -8.3318  -8.3162  -8.3160  -8.2953  -8.2872  -8.2872  -8.2392
    -8.2391  -8.1830  -8.1829  -8.1578  -8.1552  -8.1512  -8.1511  -8.0735
    -8.0687  -8.0686  -7.9907  -7.9907  -7.9305  -7.5565  -5.7733  -3.6497
    -2.3550  -2.3547  -2.1436  -1.6637  -1.5642  -1.5641  -1.3307  -1.3305
    -1.2776  -0.8704  -0.1763  -0.1763  -0.0010   0.5563   0.5566   1.1864
     1.6420   1.6423   1.7992   2.3263   2.6858

[...]

          k =-0.5000 0.2887 0.0000 ( 21576 PWs)   bands (ev):

[...]

     the Fermi energy is     0.3775 ev

!    total energy              =   -1417.48612398 Ry
     Harris-Foulkes estimate   =   -1417.48627988 Ry
     estimated scf accuracy    <       0.00006307 Ry

     The total energy is the sum of the following terms:

     one-electron contribution =   -8440.89318910 Ry
     hartree contribution      =    4314.59883376 Ry
     xc contribution           =    -498.32990749 Ry
     ewald contribution        =    3207.16621086 Ry
     electric field correction =       0.00028118 Ry
     smearing contrib. (-TS)   =      -0.02835319 Ry

     convergence has been achieved in  13 iterations

     Forces acting on atoms (Ry/au):

     negative rho (up, down):  2.698E-01 0.000E+00
     atom    1 type  1   force =     0.00004567   -0.00030840   -0.01805321
     atom    2 type  1   force =     0.00011803    0.00001736   -0.02063042
     atom    3 type  1   force =     0.00015992    0.00001752   -0.02072806
     atom    4 type  1   force =    -0.00012844    0.00021350   -0.02039478
     atom    5 type  1   force =     0.00495699   -0.00288136    0.02035368
     atom    6 type  1   force =    -0.00508548   -0.00283681    0.02043328
     atom    7 type  1   force =    -0.00003240   -0.00001080    0.01942308
     atom    8 type  1   force =     0.00002252    0.00575739    0.02034039
     atom    9 type  1   force =     0.00371323    0.00211783    0.00057432
     atom   10 type  1   force =    -0.00375708    0.00223067    0.00071588
     atom   11 type  1   force =    -0.00002067   -0.00438091    0.00074449
     atom   12 type  1   force =    -0.00001499    0.00003961    0.00068761
     atom   13 type  2   force =     0.00002270    0.00002439   -0.00346624

     Total force =     0.008393     Total SCF correction =     0.014662
     SCF correction compared to forces is large: reduce conv_thr to get better values

     BFGS Geometry Optimization

     number of scf cycles    =   1
     number of bfgs steps    =   0

     energy   new            =   -1417.4861239813 Ry

     new trust radius        =       0.0044437625 bohr
     new conv_thr            =       0.0001000000 Ry

ATOMIC_POSITIONS (angstrom)
Cd       1.563552067   0.902717207  10.000000000    0   0   0
Cd       4.690656202   0.902717207  10.000000000    0   0   0
Cd       3.127104135   3.610868828  10.000000000    0   0   0
Cd       6.254208270   3.610868828  10.000000000    0   0   0
Cd       6.254208270   1.805434414  12.553269834    0   0   0
Cd       3.127104135   1.805434414  12.553269834    0   0   0
Cd       7.817760337   4.513586035  12.553269834    0   0   0
Cd       4.690656202   4.513586035  12.553269834    0   0   0
Cd      -0.102239749  -0.059039108  15.650232154
Cd       3.229426728  -0.059033077  15.651470675
Cd       1.563594256   2.826227481  15.651734270
Cd       4.690404806   2.708028950  15.179026537
S        1.562582015   0.902113686  17.334261713

     Writing output data file calc.save
     Check: negative starting charge=   -0.261307
     NEW-OLD atomic charge density approx. for the potential
     Check: negative starting charge=   -0.261328

[...]

     number of scf cycles    =   2
     number of bfgs steps    =   1

     energy   old            =   -1417.4861239813 Ry
     energy   new            =   -1417.4861539997 Ry

     CASE: energy  _new < energy  _old

     new trust radius        =       0.0024353701 bohr
     new conv_thr            =       0.0000010000 Ry

ATOMIC_POSITIONS (angstrom)
Cd       1.563552067   0.902717207  10.000000000    0   0   0
Cd       4.690656202   0.902717207  10.000000000    0   0   0
Cd       3.127104135   3.610868828  10.000000000    0   0   0
Cd       6.254208270   3.610868828  10.000000000    0   0   0
Cd       6.254208270   1.805434414  12.553269834    0   0   0
Cd       3.127104135   1.805434414  12.553269834    0   0   0
Cd       7.817760337   4.513586035  12.553269834    0   0   0
Cd       4.690656202   4.513586035  12.553269834    0   0   0
Cd      -0.103228311  -0.059599432  15.649663893
Cd       3.230391804  -0.059609621  15.650893559
Cd       1.563594193   2.827373865  15.651145492
Cd       4.690423161   2.708004938  15.178291063
S        1.562590942   0.902116590  17.334559646

     Writing output data file calc.save
     Check: negative starting charge=   -0.261328
     NEW-OLD atomic charge density approx. for the potential
     Check: negative starting charge=   -0.261297

[...]

     Self-consistent Calculation

[...]

     total energy              =   -1417.48616950 Ry
     Harris-Foulkes estimate   =   -1417.48617123 Ry
     estimated scf accuracy    <       0.00000152 Ry

     iteration #  6     ecut=    36.75 Ry     beta=0.20
     Davidson diagonalization with overlap
     ethr =  1.01E-09,  avg # of iterations =  3.0

     negative rho (up, down):  2.698E-01 0.000E+00

     Adding external electric field

     Computed dipole along edir(3) :
        Dipole               -0.4074 Ry au,         -1.0356 Debye
        Dipole field         -0.0009 Ry au

        Potential amp.        0.0762 Ry
        Total length         42.7000 bohr

     End of self-consistent calculation

[...]

          k = 0.3333-0.3849 0.0000 ( 21571 PWs)   bands (ev):

[...]

          k =-0.5000-0.2887 0.0000 ( 21576 PWs)   bands (ev):

   -12.0957  -9.2435  -9.2361  -9.1502  -9.1293  -9.1008  -9.0993  -9.0736
    -9.0614  -9.0444  -9.0404  -9.0331  -8.9660  -8.9293  -8.9243  -8.8998
    -8.8867  -8.8829  -8.8640  -8.8114  -8.8032  -8.8006  -8.7597  -8.7593
    -8.7023  -8.6989  -8.6866  -8.6827  -8.6703  -8.6523  -8.6402  -8.6140
    -8.5797  -8.5545  -8.5500  -8.5376  -8.5170  -8.5140  -8.4924  -8.4797
    -8.4737  -8.4500  -8.4385  -8.4241  -8.4121  -8.4112  -8.4089  -8.3575
    -8.3218  -8.3192  -8.3132  -8.2985  -8.2880  -8.2533  -8.2191  -8.2063
    -8.1844  -8.1516  -8.1263  -8.0824  -8.0571  -6.0909  -5.9751  -4.7640
    -4.3211  -3.0436  -3.0219  -2.8589  -2.5753  -2.5239  -1.8646  -1.2284
    -0.7410  -0.2977   0.6250   0.9441   1.2493   1.9195   2.6434   2.6847
     3.0630   3.0777   3.5865   3.7222   3.8080

     the Fermi energy is     0.3984 ev

!    total energy              =   -1417.48616993 Ry
     Harris-Foulkes estimate   =   -1417.48617364 Ry
     estimated scf accuracy    <       0.00000009 Ry

     The total energy is the sum of the following terms:

     one-electron contribution =   -8441.47680217 Ry
     hartree contribution      =    4314.90822027 Ry
     xc contribution           =    -498.35103014 Ry
     ewald contribution        =    3207.46142205 Ry
     electric field correction =       0.00036348 Ry
     smearing contrib. (-TS)   =      -0.02834342 Ry

     convergence has been achieved in   6 iterations

     Forces acting on atoms (Ry/au):

     negative rho (up, down):  2.698E-01 0.000E+00
     atom    1 type  1   force =    -0.00000354    0.00000481   -0.01723894
     atom    2 type  1   force =     0.00000508   -0.00005987   -0.01950219
     atom    3 type  1   force =    -0.00005572    0.00003251   -0.01950288
     atom    4 type  1   force =     0.00005852    0.00002716   -0.01950944
     atom    5 type  1   force =     0.00575760   -0.00332235    0.02004874
     atom    6 type  1   force =    -0.00576425   -0.00332447    0.02003287
     atom    7 type  1   force =     0.00000138   -0.00000113    0.01703247
     atom    8 type  1   force =     0.00000044    0.00664700    0.02005935
     atom    9 type  1   force =     0.00115962    0.00066422   -0.00029942
     atom   10 type  1   force =    -0.00120388    0.00068897   -0.00022813
     atom   11 type  1   force =     0.00000031   -0.00137069   -0.00023321
     atom   12 type  1   force =     0.00001796    0.00001048   -0.00003393
     atom   13 type  2   force =     0.00002649    0.00000334   -0.00062530

     Total force =     0.002486     Total SCF correction =     0.000817
     SCF correction compared to forces is large: reduce conv_thr to get better values

     bfgs converged in   3 scf cycles and   2 bfgs steps
     (criteria: energy <  1.0E+12, force <  1.9E-03)

     End of BFGS Geometry Optimization

     Final energy   =   -1417.4861699305 Ry
Begin final coordinates

ATOMIC_POSITIONS (angstrom)
Cd       1.563552067   0.902717207  10.000000000    0   0   0
Cd       4.690656202   0.902717207  10.000000000    0   0   0
Cd       3.127104135   3.610868828  10.000000000    0   0   0
Cd       6.254208270   3.610868828  10.000000000    0   0   0
Cd       6.254208270   1.805434414  12.553269834    0   0   0
Cd       3.127104135   1.805434414  12.553269834    0   0   0
Cd       7.817760337   4.513586035  12.553269834    0   0   0
Cd       4.690656202   4.513586035  12.553269834    0   0   0
Cd      -0.103228311  -0.059599432  15.649663893
Cd       3.230391804  -0.059609621  15.650893559
Cd       1.563594193   2.827373865  15.651145492
Cd       4.690423161   2.708004938  15.178291063
S        1.562590942   0.902116590  17.334559646
End final coordinates

     Writing output data file calc.save

     General routines

     Parallel routines

   This run was terminated on:  21:27:28  11Jan2019

   JOB DONE.
Job  /afs/slac/g/suncat/bin/suncat-tsmpirun -x LD_LIBRARY_PATH -wdir /tmp/qe_673342lnu2s9f2_scratch pw.x -npool 2 -in pw.pwi

TID   HOST_NAME   COMMAND_LINE            STATUS            TERMINATION_TIME
00000 suncat2060 pw.x -npool 2 -i  Done                     01/11/2019 21:27:28
00001 suncat2060 pw.x -npool 2 -i  Done                     01/11/2019 21:27:28
00002 suncat2060 pw.x -npool 2 -i  Done                     01/11/2019 21:27:28
00003 suncat2060 pw.x -npool 2 -i  Done                     01/11/2019 21:27:28
00004 suncat2060 pw.x -npool 2 -i  Done                     01/11/2019 21:27:28
00005 suncat2060 pw.x -npool 2 -i  Done                     01/11/2019 21:27:28
00006 suncat2060 pw.x -npool 2 -i  Done                     01/11/2019 21:27:28
00007 suncat2060 pw.x -npool 2 -i  Done                     01/11/2019 21:27:28
00008 suncat2060 pw.x -npool 2 -i  Done                     01/11/2019 21:27:28
00009 suncat2060 pw.x -npool 2 -i  Done                     01/11/2019 21:27:28
00010 suncat2060 pw.x -npool 2 -i  Done                     01/11/2019 21:27:28
00011 suncat2060 pw.x -npool 2 -i  Done                     01/11/2019 21:27:28
00012 suncat2060 pw.x -npool 2 -i  Done                     01/11/2019 21:27:28
00013 suncat2060 pw.x -npool 2 -i  Done                     01/11/2019 21:27:28
00014 suncat2060 pw.x -npool 2 -i  Done                     01/11/2019 21:27:28
00015 suncat2060 pw.x -npool 2 -i  Done                     01/11/2019 21:27:28
00016 suncat2055 pw.x -npool 2 -i  Done                     01/11/2019 21:27:28
00017 suncat2055 pw.x -npool 2 -i  Done                     01/11/2019 21:27:28
00018 suncat2055 pw.x -npool 2 -i  Done                     01/11/2019 21:27:28
00019 suncat2055 pw.x -npool 2 -i  Done                     01/11/2019 21:27:28
00020 suncat2055 pw.x -npool 2 -i  Done                     01/11/2019 21:27:28
00021 suncat2055 pw.x -npool 2 -i  Done                     01/11/2019 21:27:28
00022 suncat2055 pw.x -npool 2 -i  Done                     01/11/2019 21:27:28
00023 suncat2055 pw.x -npool 2 -i  Done                     01/11/2019 21:27:28
00024 suncat2055 pw.x -npool 2 -i  Done                     01/11/2019 21:27:28
00025 suncat2055 pw.x -npool 2 -i  Done                     01/11/2019 21:27:28
00026 suncat2055 pw.x -npool 2 -i  Done                     01/11/2019 21:27:28
00027 suncat2055 pw.x -npool 2 -i  Done                     01/11/2019 21:27:28
00028 suncat2055 pw.x -npool 2 -i  Done                     01/11/2019 21:27:28
00029 suncat2055 pw.x -npool 2 -i  Done                     01/11/2019 21:27:28
00030 suncat2055 pw.x -npool 2 -i  Done                     01/11/2019 21:27:28
00031 suncat2055 pw.x -npool 2 -i  Done                     01/11/2019 21:27:28