     Program PWSCF v.5.1rc2 (svn rev. 11289) starts on 16Apr2018 at  9:56:58

     Current dimensions of program PWSCF are:
     Max number of different atomic species (ntypx) = 10
     Max number of k-points (npk) =  40000
     Max angular momentum in pseudopotentials (lmaxx) =  3
     Presently stress not available with electric field

     IMPORTANT: XC functional enforced from input :
     Exchange-correlation      = BEEF-VDW ( 1  4 27 13 2)
     Any further DFT definition will be discarded
     Please, verify this is what you really want

     Subspace diagonalization in iterative solution of the eigenvalue problem:
     a serial algorithm will be used

     bravais-lattice index     =            0
     lattice parameter (alat)  =       1.8897  a.u.
     unit-cell volume          =    5174.6160 (a.u.)^3
     number of atoms/cell      =           14
     number of atomic types    =            3
     number of electrons       =       233.00
     number of Kohn-Sham states=          126
     kinetic-energy cutoff     =      36.7493  Ry
     charge density cutoff     =     367.4932  Ry
     convergence threshold     =      1.0E-05
     mixing beta               =       0.3000
     number of iterations used =           10  plain     mixing
     Exchange-correlation      = BEEF-VDW ( 1  4 27 13 2)
     nstep                     =           50

     celldm(1)=   1.889726  celldm(2)=   0.000000  celldm(3)=   0.000000
     celldm(4)=   0.000000  celldm(5)=   0.000000  celldm(6)=   0.000000

     crystal axes: (cart. coord. in units of alat)
               a(1) = (   5.966546   0.000000   0.000000 )
               a(2) = (   2.983273   5.167181   0.000000 )
               a(3) = (   0.000000   0.000000  24.871665 )

     reciprocal axes: (cart. coord. in units 2 pi/alat)
               b(1) = (  0.167601 -0.096765  0.000000 )
               b(2) = (  0.000000  0.193529  0.000000 )
               b(3) = (  0.000000  0.000000  0.040206 )

     PseudoPot. # 1 for Ag read from file:
     /u/if/mamunm/psp/gbrv1.5pbe/Ag.UPF
     MD5 check sum: d66d668201baa78d5eb5b04ef7011058
     Pseudo is Ultrasoft + core correction, Zval = 19.0
     Generated by new atomic code, or converted to UPF format
     Using radial grid of  887 points,  6 beta functions with:
                l(1) =   0
                l(2) =   0
                l(3) =   1
                l(4) =   1
                l(5) =   2
                l(6) =   2
     Q(r) pseudized with  6 coefficients,  rinner =    1.300   1.300   1.300
                                                       1.300   1.300

     PseudoPot. # 2 for C  read from file:
     /u/if/mamunm/psp/gbrv1.5pbe/C.UPF
     MD5 check sum: d1aef80898a10debaa0f26306b886e00
     Pseudo is Ultrasoft + core correction, Zval =  4.0
     Generated by new atomic code, or converted to UPF format
     Using radial grid of  721 points,  4 beta functions with:
                l(1) =   0
                l(2) =   0
                l(3) =   1
                l(4) =   1
     Q(r) pseudized with  8 coefficients,  rinner =    1.100   1.100   1.100

     PseudoPot. # 3 for H  read from file:
     /u/if/mamunm/psp/gbrv1.5pbe/H.UPF
     MD5 check sum: 761ae9a214b05c3daf00ab9f6b793d6f
     Pseudo is Ultrasoft, Zval =  1.0
     Generated by new atomic code, or converted to UPF format
     Using radial grid of  615 points,  2 beta functions with:
                l(1) =   0
                l(2) =   0
     Q(r) pseudized with  8 coefficients,  rinner =    0.700

     vdW kernel table read from file vdW_kernel_table
     MD5 check sum: 095c7af220d748ca6e76c0b4c6cfb241

     atomic species   valence    mass     pseudopotential
        Ag1           19.00   107.86820     Ag( 1.00)
        C1             4.00    12.01100     C ( 1.00)
        H1             1.00     1.00800     H ( 1.00)

     No symmetry found

   Cartesian axes

     site n.     atom                  positions (alat units)
         1           Ag1 tau(   1) = (   1.4916366   0.8611968  10.0000000  )
         2           Ag1 tau(   2) = (   4.4749098   0.8611968  10.0000000  )
         3           Ag1 tau(   3) = (   2.9832732   3.4447871  10.0000000  )
         4           Ag1 tau(   4) = (   5.9665464   3.4447871  10.0000000  )
         5           Ag1 tau(   5) = (   5.9665464   1.7223936  12.4358324  )
         6           Ag1 tau(   6) = (   2.9832732   1.7223936  12.4358324  )
         7           Ag1 tau(   7) = (   7.4581830   4.3059839  12.4358324  )
         8           Ag1 tau(   8) = (   4.4749098   4.3059839  12.4358324  )
         9           Ag1 tau(   9) = (   0.0000000   0.0000000  14.8716647  )
        10           Ag1 tau(  10) = (   2.9832732   0.0000000  14.8716647  )
        11           Ag1 tau(  11) = (   1.4916366   2.5835904  14.8716647  )
        12           Ag1 tau(  12) = (   4.4749098   2.5835904  14.8716647  )
        13           C1  tau(  13) = (   1.4916366   0.8611968  16.3081647  )
        14           H1  tau(  14) = (   1.4916366   0.8611968  17.4081647  )

     number of k points=    20  Fermi-Dirac smearing, width (Ry)=  0.0110
                       cart. coord. in units 2pi/alat
        k(    1) = (   0.0000000   0.0000000   0.0000000), wk =   0.0555556
        k(    2) = (   0.0000000   0.0322549   0.0000000), wk =   0.1111111
        k(    3) = (   0.0000000   0.0645097   0.0000000), wk =   0.1111111
        k(    4) = (   0.0000000  -0.0967646   0.0000000), wk =   0.0555556
        k(    5) = (   0.0279335  -0.0161274   0.0000000), wk =   0.1111111
        k(    6) = (   0.0279335   0.0161274   0.0000000), wk =   0.1111111
        k(    7) = (   0.0279335   0.0483823   0.0000000), wk =   0.1111111
        k(    8) = (   0.0279335  -0.1128920   0.0000000), wk =   0.1111111
        k(    9) = (   0.0279335  -0.0806371   0.0000000), wk =   0.1111111
        k(   10) = (   0.0279335  -0.0483823   0.0000000), wk =   0.1111111
        k(   11) = (   0.0558670  -0.0322549   0.0000000), wk =   0.1111111
        k(   12) = (   0.0558670   0.0000000   0.0000000), wk =   0.1111111
        k(   13) = (   0.0558670   0.0322549   0.0000000), wk =   0.1111111
        k(   14) = (   0.0558670  -0.1290194   0.0000000), wk =   0.1111111
        k(   15) = (   0.0558670  -0.0967646   0.0000000), wk =   0.1111111
        k(   16) = (   0.0558670  -0.0645097   0.0000000), wk =   0.1111111
        k(   17) = (  -0.0838006   0.0483823   0.0000000), wk =   0.0555556
        k(   18) = (  -0.0838006   0.0806371   0.0000000), wk =   0.1111111
        k(   19) = (  -0.0838006   0.1128920   0.0000000), wk =   0.1111111
        k(   20) = (  -0.0838006  -0.0483823   0.0000000), wk =   0.0555556

     Largest allocated arrays     est. size (Mb)     dimensions
     Largest temporary arrays     est. size (Mb)     dimensions

     Initial potential from superposition of free atoms
     Check: negative starting charge=   -0.002025

     starting charge  226.99938, renormalised to  233.00000

     negative rho (up, down):  2.078E-03 0.000E+00

     *
     * You are using vdW-DF for exchange-correlation in this calculation.
     * Please cite the following three references that made this development
     * possible:
     *
     *   M. Dion, H. Rydberg, E. Schroder, D. C. Langreth, and
     *   B. I. Lundqvist, Phys. Rev. Lett. 92, 246401 (2004).
     *
     *   T. Thonhauser, V. R. Cooper, S. Li, A. Puzder, P. Hyldgaard, and
     *   D. C. Langreth, Phys. Rev. B 76, 125112 (2007).
     *
     *   G. Roman-Perez and J. M. Soler, Phys. Rev. Lett. 103, 096102 (2009).
     *
     *
     * If you are using vdW-DF2, please also cite:
     *
     *   K. Lee, E. D. Murray, L. Kong, B. I. Lundqvist, and
     *   D. C. Langreth, Phys. Rev. B 82, 081101(R) (2010).
     *
     *
     * If you are calculating the stress with vdW-DF, please also cite:
     *
     *   R. Sabatini, E. Kucukbenli, B. Kolb, T. Thonhauser, and
     *   S. de Gironcoli, J. Phys.: Condens. Matter 24, 424209 (2012).
     *

     Carrying out vdW-DF run using the following parameters:

     Nqs =      20    Nr_points =    1024   r_max =   100.000
     q_mesh =
               0.00001000     0.04494208     0.09755937     0.15916263
               0.23128650     0.31572767     0.41458969     0.53033537
               0.66584808     0.82450364     1.01025438     1.22772762
               1.48234092     1.78043706     2.12944203     2.53805004
               3.01644009     3.57652955     4.23227104     5.00000000

     Gradients computed in reciprocal space

     Adding external electric field

     Computed dipole along edir(3) :
        Dipole               -1.0218 Ry au,         -2.5970 Debye
        Dipole field         -0.0025 Ry au

        Potential amp.        0.2274 Ry
        Total length         45.8256 bohr

     Starting wfc are  161 randomized atomic wfcs

     Self-consistent Calculation

     iteration #  1     ecut=    36.75 Ry     beta=0.30
     Davidson diagonalization with overlap
     ethr =  1.00E-02,  avg # of iterations =  5.8

[...]

     total energy              =   -3563.84819882 Ry
     Harris-Foulkes estimate   =   -3575.91981867 Ry
     estimated scf accuracy    <      26.24030966 Ry

[...]

     End of self-consistent calculation

          k = 0.0000 0.0000 0.0000 ( 19435 PWs)   bands (ev):

   -90.8585 -90.8170 -90.8119 -90.8119 -90.7365 -90.7312 -90.7312 -90.6490
   -90.6428 -90.6425 -90.6396 -90.5235 -54.3756 -54.3756 -54.3612 -54.3560
   -54.3152 -54.3111 -54.3111 -54.3052 -54.3052 -54.2911 -54.2814 -54.2791
   -54.2791 -54.2512 -54.2512 -54.2239 -54.2239 -54.1979 -54.1960 -54.1919
   -54.1902 -54.1900 -54.1636 -54.1636 -54.1319 -54.1316 -54.1314 -54.1228
   -54.1167 -54.1164 -54.1125 -54.1110 -54.1110 -54.0264 -54.0264 -54.0056
    -9.6576  -5.3511  -5.0357  -4.5735  -4.5735  -4.5658  -4.5278  -4.4632
    -4.4632  -4.4176  -4.3537  -4.3250  -4.3249  -4.2255  -4.1801  -4.1801
    -3.7172  -3.6650  -3.6650  -3.4976  -3.4976  -3.4827  -3.4103  -3.3907
    -3.3907  -3.3202  -3.3202  -3.2075  -3.2075  -3.1915  -3.1489  -3.1488
    -2.7969  -2.7969  -2.7853  -2.6098  -2.6097  -2.6058  -2.5622  -2.5622
    -2.5588  -2.4586  -2.3465  -2.3465  -2.3150  -2.3149  -2.1252  -2.1251
    -2.0800  -2.0250  -2.0249  -2.0023  -1.9986  -1.9986  -1.9126  -1.9126
    -1.9107  -1.7700  -1.7489  -1.7488  -1.7384  -1.7341  -1.7341  -1.0510
     0.5301   0.9596   0.9596   1.7941   1.8125   1.8125   2.1669   2.5842
     2.5842   2.7197   3.2131   3.2131   3.9844   4.9726

[...]

          k =-0.0838 0.0484 0.0000 ( 19500 PWs)   bands (ev):

[...]

     the Fermi energy is     1.2158 ev

!    total energy              =   -3572.39742385 Ry
     Harris-Foulkes estimate   =   -3572.39742601 Ry
     estimated scf accuracy    <       0.00000342 Ry

     The total energy is the sum of the following terms:

     one-electron contribution =  -26121.40150671 Ry
     hartree contribution      =   13053.00158242 Ry
     xc contribution           =    -365.20839929 Ry
     ewald contribution        =    9861.23648134 Ry
     electric field correction =       0.00002262 Ry
     smearing contrib. (-TS)   =      -0.02560421 Ry

     convergence has been achieved in  14 iterations

 BEEF-vdW xc energy contributions
           1 :   -316.370335591043
           2 :    286.403354401748
           3 :   -236.422816891926
           4 :    181.515673451203
           5 :   -135.381761570959
           6 :    105.404234530657
           7 :   -91.2666472379992
           8 :    87.1291188396045
           9 :   -85.7166193345685
          10 :    81.9961656616327
          11 :   -74.7554192306949
          12 :    65.7879129284800
          13 :   -57.7375190159421
          14 :    52.1500816369881
          15 :   -48.8032120075266
          16 :    46.3658293886740
          17 :   -43.6130194501495
          18 :    40.2426399548839
          19 :   -36.8313687442916
          20 :    34.1486885228601
          21 :   -32.4546073935170
          22 :    31.3034294844475
          23 :   -29.9317360498094
          24 :    27.8717326319990
          25 :   -25.3120449721577
          26 :    22.9528115182970
          27 :   -21.4904351010913
          28 :    21.1214942826851
          29 :   -21.4180060608513
          30 :    21.6392249735983
          31 :   -31.6752292726162
          32 :   -23.0446258991489

     Forces acting on atoms (Ry/au):

     negative rho (up, down):  2.117E-03 0.000E+00
     atom    1 type  1   force =     0.00000064    0.00000075    0.00213087
     atom    2 type  1   force =    -0.00000082   -0.00027183   -0.00082416
     atom    3 type  1   force =    -0.00023668    0.00013627   -0.00086067
     atom    4 type  1   force =     0.00023657    0.00013720   -0.00085958
     atom    5 type  1   force =    -0.00139311    0.00080778   -0.00287455
     atom    6 type  1   force =     0.00139333    0.00080834   -0.00287379
     atom    7 type  1   force =     0.00000056   -0.00000505    0.00961852
     atom    8 type  1   force =    -0.00000063   -0.00161193   -0.00286212
     atom    9 type  1   force =     0.00015000    0.00008742    0.01985107
     atom   10 type  1   force =    -0.00014969    0.00008723    0.01984963
     atom   11 type  1   force =     0.00000005   -0.00017649    0.01984028
     atom   12 type  1   force =    -0.00000028   -0.00000007    0.00089773
     atom   13 type  2   force =     0.00000004    0.00000018   -0.05269961
     atom   14 type  3   force =     0.00000002    0.00000021   -0.00833361

     Total force =     0.063477     Total SCF correction =     0.007842
     SCF correction compared to forces is large: reduce conv_thr to get better values

     entering subroutine stress ...

     negative rho (up, down):  2.117E-03 0.000E+00
          total   stress  (Ry/bohr**3)                   (kbar)     P=   -8.93
  -0.00006614   0.00000000   0.00000000         -9.73      0.00      0.00
   0.00000000  -0.00006615   0.00000000          0.00     -9.73      0.00
   0.00000000   0.00000000  -0.00004983          0.00      0.00     -7.33

     BFGS Geometry Optimization

     number of scf cycles    =   1
     number of bfgs steps    =   0

     energy   new            =   -3572.3974238460 Ry

     new trust radius        =       0.0526996111 bohr
     new conv_thr            =       0.0000099958 Ry

ATOMIC_POSITIONS (crystal)
Ag1      0.166666667   0.166666667   0.402063960    0   0   0
Ag1      0.666666667   0.166666667   0.402063960    0   0   0
Ag1      0.166666667   0.666666667   0.402063960    0   0   0
Ag1      0.666666667   0.666666667   0.402063960    0   0   0
Ag1      0.833333333   0.333333333   0.500000000    0   0   0
Ag1      0.333333333   0.333333333   0.500000000    0   0   0
Ag1      0.833333333   0.833333333   0.500000000    0   0   0
Ag1      0.333333333   0.833333333   0.500000000    0   0   0
Ag1      0.000008827   0.000008953   0.598358398
Ag1      0.499982257   0.000008934   0.598358367
Ag1      0.000009042   0.499981925   0.598358168
Ag1      0.499999979   0.499999992   0.597955141
C1       0.166666661   0.166666685   0.654571275
H1       0.166666658   0.166666688   0.699742255

     Writing output data file calc.save
     Check: negative starting charge=   -0.002025
     NEW-OLD atomic charge density approx. for the potential
     Check: negative starting charge=   -0.002025

[...]

     energy   old            =   -3572.3974238460 Ry
     energy   new            =   -3572.4004953725 Ry

     CASE: energy  _new < energy  _old

[...]

     Total force =     0.048225     Total SCF correction =     0.001899

[...]

     Total force =     0.006243     Total SCF correction =     0.000392

[...]

     number of scf cycles    =  15
     number of bfgs steps    =  14

     energy   old            =   -3572.4152270293 Ry
     energy   new            =   -3572.4153079502 Ry

     CASE: energy  _new < energy  _old

     new trust radius        =       0.0052962287 bohr
     new conv_thr            =       0.0000001000 Ry

ATOMIC_POSITIONS (crystal)
Ag1      0.166666667   0.166666667   0.402063960    0   0   0
Ag1      0.666666667   0.166666667   0.402063960    0   0   0
Ag1      0.166666667   0.666666667   0.402063960    0   0   0
Ag1      0.666666667   0.666666667   0.402063960    0   0   0
Ag1      0.833333333   0.333333333   0.500000000    0   0   0
Ag1      0.333333333   0.333333333   0.500000000    0   0   0
Ag1      0.833333333   0.833333333   0.500000000    0   0   0
Ag1      0.333333333   0.833333333   0.500000000    0   0   0
Ag1     -0.006945077  -0.006947233   0.599301323
Ag1      0.513892319  -0.006947398   0.599301379
Ag1     -0.006946728   0.513893100   0.599301933
Ag1      0.500000455   0.499999164   0.598068760
C1       0.166666707   0.166666518   0.644836270
H1       0.166665974   0.166668700   0.688876234

     Writing output data file calc.save
     Check: negative starting charge=   -0.002144
     NEW-OLD atomic charge density approx. for the potential
     Check: negative starting charge=   -0.002145

[...]

     Self-consistent Calculation

[...]

     total energy              =   -3572.41532603 Ry
     Harris-Foulkes estimate   =   -3572.41532605 Ry
     estimated scf accuracy    <       0.00000034 Ry

     iteration #  6     ecut=    36.75 Ry     beta=0.30
     Davidson diagonalization with overlap
     ethr =  1.46E-10,  avg # of iterations =  2.0

[...]

     negative rho (up, down):  2.219E-03 0.000E+00

     Adding external electric field

     Computed dipole along edir(3) :
        Dipole               -0.0636 Ry au,         -0.1617 Debye
        Dipole field         -0.0002 Ry au

        Potential amp.        0.0142 Ry
        Total length         45.8256 bohr

     End of self-consistent calculation

[...]

          k = 0.0559-0.0645 0.0000 ( 19479 PWs)   bands (ev):

[...]

          k =-0.0838-0.0484 0.0000 ( 19500 PWs)   bands (ev):

   -90.8379 -90.8262 -90.8225 -90.8212 -90.7732 -90.7714 -90.7697 -90.6271
   -90.6019 -90.6001 -90.5985 -90.5081 -54.4160 -54.3855 -54.3744 -54.3381
   -54.3287 -54.3265 -54.3048 -54.2995 -54.2944 -54.2798 -54.2789 -54.2753
   -54.2711 -54.2686 -54.2633 -54.2595 -54.2553 -54.2474 -54.2456 -54.2329
   -54.2289 -54.1497 -54.1333 -54.1325 -54.1092 -54.1052 -54.1049 -54.1007
   -54.0897 -54.0784 -54.0745 -54.0726 -54.0707 -54.0152 -54.0123 -53.9960
    -9.9467  -4.9879  -4.4169  -4.2579  -4.2281  -4.1198  -4.1045  -4.0638
    -4.0367  -3.9468  -3.9197  -3.8996  -3.8575  -3.8426  -3.8211  -3.7755
    -3.7372  -3.6503  -3.6354  -3.5489  -3.5002  -3.4478  -3.4091  -3.3874
    -3.3849  -3.3334  -3.3222  -3.2173  -3.1400  -3.0837  -3.0776  -3.0410
    -2.9876  -2.9451  -2.9343  -2.8720  -2.8396  -2.8148  -2.7693  -2.7487
    -2.7420  -2.7178  -2.6493  -2.6346  -2.6313  -2.5752  -2.5410  -2.5375
    -2.5161  -2.5122  -2.4637  -2.4490  -2.4436  -2.3274  -2.3077  -2.2685
    -2.2332  -2.0554  -2.0275  -1.9819  -1.9702  -1.8920  -1.8438  -1.2979
    -1.1965   0.1782   0.4520   0.7464   1.1488   1.3553   1.9319   2.6988
     3.1362   3.5294   4.2520   4.6071   5.4197   5.8261

     the Fermi energy is     1.2687 ev

!    total energy              =   -3572.41532605 Ry
     Harris-Foulkes estimate   =   -3572.41532634 Ry
     estimated scf accuracy    <       0.00000003 Ry

     The total energy is the sum of the following terms:

     one-electron contribution =  -26116.81396680 Ry
     hartree contribution      =   13050.68292647 Ry
     xc contribution           =    -365.27848789 Ry
     ewald contribution        =    9859.01837302 Ry
     electric field correction =       0.00000982 Ry
     smearing contrib. (-TS)   =      -0.02418067 Ry

     convergence has been achieved in   6 iterations

 BEEF-vdW xc energy contributions
           1 :   -316.450548286257
           2 :    286.529545467033
           3 :   -236.594063088036
           4 :    181.681969259496
           5 :   -135.479201821790
           6 :    105.396882317733
           7 :   -91.1706008930198
           8 :    87.0042625584297
           9 :   -85.6315576992205
          10 :    81.9889548293194
          11 :   -74.8142176748763
          12 :    65.8621043627287
          13 :   -57.7712572772978
          14 :    52.1168365937123
          15 :   -48.7202196812358
          16 :    46.2808505601681
          17 :   -43.5742865746674
          18 :    40.2722421788180
          19 :   -36.9164815731034
          20 :    34.2524391213985
          21 :   -32.5382846645622
          22 :    31.3466531073382
          23 :   -29.9400022544738
          24 :    27.8691876212874
          25 :   -25.3250727458868
          26 :    22.9941585508672
          27 :   -21.5524279334454
          28 :    21.1802693101326
          29 :   -21.4445553564246
          30 :    21.6100758861044
          31 :   -31.6819165914375
          32 :   -23.0597878848346

     Forces acting on atoms (Ry/au):

     negative rho (up, down):  2.219E-03 0.000E+00
     atom    1 type  1   force =    -0.00000000   -0.00000001    0.00210553
     atom    2 type  1   force =     0.00000001   -0.00031124   -0.00206061
     atom    3 type  1   force =    -0.00026952    0.00015564   -0.00206058
     atom    4 type  1   force =     0.00026952    0.00015563   -0.00206058
     atom    5 type  1   force =    -0.00133087    0.00076859   -0.00106876
     atom    6 type  1   force =     0.00133086    0.00076857   -0.00106866
     atom    7 type  1   force =    -0.00000002   -0.00000019    0.00670964
     atom    8 type  1   force =     0.00000001   -0.00153716   -0.00106936
     atom    9 type  1   force =    -0.00005815   -0.00003242    0.00004060
     atom   10 type  1   force =     0.00005820   -0.00003221    0.00004037
     atom   11 type  1   force =     0.00000021    0.00006593    0.00003859
     atom   12 type  1   force =    -0.00000018   -0.00000057    0.00033164
     atom   13 type  2   force =     0.00000006    0.00000025    0.00100304
     atom   14 type  3   force =    -0.00000013   -0.00000081   -0.00088087

     Total force =     0.001382     Total SCF correction =     0.000572
     SCF correction compared to forces is large: reduce conv_thr to get better values

     entering subroutine stress ...

     negative rho (up, down):  2.219E-03 0.000E+00
          total   stress  (Ry/bohr**3)                   (kbar)     P=   -5.29
  -0.00004555  -0.00000000  -0.00000000         -6.70     -0.00     -0.00
  -0.00000000  -0.00004555  -0.00000000         -0.00     -6.70     -0.00
  -0.00000000  -0.00000000  -0.00001688         -0.00     -0.00     -2.48

     bfgs converged in  16 scf cycles and  15 bfgs steps
     (criteria: energy <  1.0E+00, force <  1.9E-03)

     End of BFGS Geometry Optimization

     Final energy   =   -3572.4153260454 Ry
Begin final coordinates

ATOMIC_POSITIONS (crystal)
Ag1      0.166666667   0.166666667   0.402063960    0   0   0
Ag1      0.666666667   0.166666667   0.402063960    0   0   0
Ag1      0.166666667   0.666666667   0.402063960    0   0   0
Ag1      0.666666667   0.666666667   0.402063960    0   0   0
Ag1      0.833333333   0.333333333   0.500000000    0   0   0
Ag1      0.333333333   0.333333333   0.500000000    0   0   0
Ag1      0.833333333   0.833333333   0.500000000    0   0   0
Ag1      0.333333333   0.833333333   0.500000000    0   0   0
Ag1     -0.006945077  -0.006947233   0.599301323
Ag1      0.513892319  -0.006947398   0.599301379
Ag1     -0.006946728   0.513893100   0.599301933
Ag1      0.500000455   0.499999164   0.598068760
C1       0.166666707   0.166666518   0.644836270
H1       0.166665974   0.166668700   0.688876234
End final coordinates

     Writing output data file calc.save

     General routines

     Parallel routines

   This run was terminated on:  11:31:59  16Apr2018

   JOB DONE.
Job  /afs/slac/g/suncat/bin/suncat-tsmpirun -x LD_LIBRARY_PATH -wdir /scratch/qe98206_v2DXO pw.x -npool 4 -in pw.inp

TID   HOST_NAME   COMMAND_LINE            STATUS            TERMINATION_TIME
00000 suncat0038 pw.x -npool 4 -i  Done                     04/16/2018 11:31:59
00001 suncat0038 pw.x -npool 4 -i  Done                     04/16/2018 11:31:59
00002 suncat0038 pw.x -npool 4 -i  Done                     04/16/2018 11:31:59
00003 suncat0038 pw.x -npool 4 -i  Done                     04/16/2018 11:31:59
00004 suncat0038 pw.x -npool 4 -i  Done                     04/16/2018 11:31:59
00005 suncat0038 pw.x -npool 4 -i  Done                     04/16/2018 11:31:59
00006 suncat0038 pw.x -npool 4 -i  Done                     04/16/2018 11:31:59
00007 suncat0038 pw.x -npool 4 -i  Done                     04/16/2018 11:31:59
00008 suncat0188 pw.x -npool 4 -i  Done                     04/16/2018 11:31:59
00009 suncat0188 pw.x -npool 4 -i  Done                     04/16/2018 11:31:59
00010 suncat0188 pw.x -npool 4 -i  Done                     04/16/2018 11:31:59
00011 suncat0188 pw.x -npool 4 -i  Done                     04/16/2018 11:31:59
00012 suncat0188 pw.x -npool 4 -i  Done                     04/16/2018 11:31:59
00013 suncat0188 pw.x -npool 4 -i  Done                     04/16/2018 11:31:59
00014 suncat0188 pw.x -npool 4 -i  Done                     04/16/2018 11:31:59
00015 suncat0188 pw.x -npool 4 -i  Done                     04/16/2018 11:31:59
00016 suncat0169 pw.x -npool 4 -i  Done                     04/16/2018 11:31:59
00017 suncat0169 pw.x -npool 4 -i  Done                     04/16/2018 11:31:59
00018 suncat0169 pw.x -npool 4 -i  Done                     04/16/2018 11:31:59
00019 suncat0169 pw.x -npool 4 -i  Done                     04/16/2018 11:31:59
00020 suncat0169 pw.x -npool 4 -i  Done                     04/16/2018 11:31:59
00021 suncat0169 pw.x -npool 4 -i  Done                     04/16/2018 11:31:59
00022 suncat0169 pw.x -npool 4 -i  Done                     04/16/2018 11:31:59
00023 suncat0169 pw.x -npool 4 -i  Done                     04/16/2018 11:31:59
00024 suncat0160 pw.x -npool 4 -i  Done                     04/16/2018 11:31:59
00025 suncat0160 pw.x -npool 4 -i  Done                     04/16/2018 11:31:59
00026 suncat0160 pw.x -npool 4 -i  Done                     04/16/2018 11:31:59
00027 suncat0160 pw.x -npool 4 -i  Done                     04/16/2018 11:31:59
00028 suncat0160 pw.x -npool 4 -i  Done                     04/16/2018 11:31:59
00029 suncat0160 pw.x -npool 4 -i  Done                     04/16/2018 11:31:59
00030 suncat0160 pw.x -npool 4 -i  Done                     04/16/2018 11:31:59
00031 suncat0160 pw.x -npool 4 -i  Done                     04/16/2018 11:31:59