     Program PWSCF v.5.1rc2 (svn rev. 11289) starts on  2May2018 at 15:11:41

     Current dimensions of program PWSCF are:
     Max number of different atomic species (ntypx) = 10
     Max number of k-points (npk) =  40000
     Max angular momentum in pseudopotentials (lmaxx) =  3
     Presently stress not available with electric field

     IMPORTANT: XC functional enforced from input :
     Exchange-correlation      = BEEF-VDW ( 1  4 27 13 2)
     Any further DFT definition will be discarded
     Please, verify this is what you really want

     Subspace diagonalization in iterative solution of the eigenvalue problem:
     a serial algorithm will be used

     bravais-lattice index     =            0
     lattice parameter (alat)  =       1.8897  a.u.
     unit-cell volume          =    6116.8020 (a.u.)^3
     number of atoms/cell      =           13
     number of atomic types    =            2
     number of electrons       =       137.00
     number of Kohn-Sham states=           78
     kinetic-energy cutoff     =      36.7493  Ry
     charge density cutoff     =     367.4932  Ry
     convergence threshold     =      1.0E-05
     mixing beta               =       0.3000
     number of iterations used =           10  plain     mixing
     Exchange-correlation      = BEEF-VDW ( 1  4 27 13 2)
     nstep                     =           50

     celldm(1)=   1.889726  celldm(2)=   0.000000  celldm(3)=   0.000000
     celldm(4)=   0.000000  celldm(5)=   0.000000  celldm(6)=   0.000000

     crystal axes: (cart. coord. in units of alat)
               a(1) = (   6.437465   0.000000   0.000000 )
               a(2) = (   3.218732   5.575008   0.000000 )
               a(3) = (   0.000000   0.000000  25.256168 )

     reciprocal axes: (cart. coord. in units 2 pi/alat)
               b(1) = (  0.155341 -0.089686  0.000000 )
               b(2) = (  0.000000  0.179372  0.000000 )
               b(3) = (  0.000000  0.000000  0.039594 )

     PseudoPot. # 1 for Sc read from file:
     /u/if/mamunm/psp/gbrv1.5pbe/Sc.UPF
     MD5 check sum: db30a2753ba66ef00f23801d899b7e7f
     Pseudo is Ultrasoft + core correction, Zval = 11.0
     Generated by new atomic code, or converted to UPF format
     Using radial grid of  849 points,  6 beta functions with:
                l(1) =   0
                l(2) =   0
                l(3) =   1
                l(4) =   1
                l(5) =   2
                l(6) =   2
     Q(r) pseudized with  6 coefficients,  rinner =    1.200   1.200   1.200
                                                       1.200   1.200

     PseudoPot. # 2 for N  read from file:
     /u/if/mamunm/psp/gbrv1.5pbe/N.UPF
     MD5 check sum: 95339753478d7afb44899504a8723017
     Pseudo is Ultrasoft + core correction, Zval =  5.0
     Generated by new atomic code, or converted to UPF format
     Using radial grid of  729 points,  4 beta functions with:
                l(1) =   0
                l(2) =   0
                l(3) =   1
                l(4) =   1
     Q(r) pseudized with  8 coefficients,  rinner =    0.900   0.900   0.900

     vdW kernel table read from file vdW_kernel_table
     MD5 check sum: 095c7af220d748ca6e76c0b4c6cfb241

     atomic species   valence    mass     pseudopotential
        Sc1           11.00    44.95591     Sc( 1.00)
        N1             5.00    14.00700     N ( 1.00)

     No symmetry found

   Cartesian axes

     site n.     atom                  positions (alat units)
         1           Sc1 tau(   1) = (   1.6093662   0.9291680  10.0000000  )
         2           Sc1 tau(   2) = (   4.8280986   0.9291680  10.0000000  )
         3           Sc1 tau(   3) = (   3.2187324   3.7166720  10.0000000  )
         4           Sc1 tau(   4) = (   6.4374648   3.7166720  10.0000000  )
         5           Sc1 tau(   5) = (   6.4374648   1.8583360  12.6280840  )
         6           Sc1 tau(   6) = (   3.2187324   1.8583360  12.6280840  )
         7           Sc1 tau(   7) = (   8.0468310   4.6458400  12.6280840  )
         8           Sc1 tau(   8) = (   4.8280986   4.6458400  12.6280840  )
         9           Sc1 tau(   9) = (   0.0000000   0.0000000  15.2561680  )
        10           Sc1 tau(  10) = (   3.2187324   0.0000000  15.2561680  )
        11           Sc1 tau(  11) = (   1.6093662   2.7875040  15.2561680  )
        12           Sc1 tau(  12) = (   4.8280986   2.7875040  15.2561680  )
        13           N1  tau(  13) = (   1.6093662   0.9291680  16.8226680  )

     number of k points=    20  Fermi-Dirac smearing, width (Ry)=  0.0110
                       cart. coord. in units 2pi/alat
        k(    1) = (   0.0000000   0.0000000   0.0000000), wk =   0.0555556
        k(    2) = (   0.0000000   0.0298953   0.0000000), wk =   0.1111111
        k(    3) = (   0.0000000   0.0597906   0.0000000), wk =   0.1111111
        k(    4) = (   0.0000000  -0.0896860   0.0000000), wk =   0.0555556
        k(    5) = (   0.0258901  -0.0149477   0.0000000), wk =   0.1111111
        k(    6) = (   0.0258901   0.0149477   0.0000000), wk =   0.1111111
        k(    7) = (   0.0258901   0.0448430   0.0000000), wk =   0.1111111
        k(    8) = (   0.0258901  -0.1046336   0.0000000), wk =   0.1111111
        k(    9) = (   0.0258901  -0.0747383   0.0000000), wk =   0.1111111
        k(   10) = (   0.0258901  -0.0448430   0.0000000), wk =   0.1111111
        k(   11) = (   0.0517802  -0.0298953   0.0000000), wk =   0.1111111
        k(   12) = (   0.0517802   0.0000000   0.0000000), wk =   0.1111111
        k(   13) = (   0.0517802   0.0298953   0.0000000), wk =   0.1111111
        k(   14) = (   0.0517802  -0.1195813   0.0000000), wk =   0.1111111
        k(   15) = (   0.0517802  -0.0896860   0.0000000), wk =   0.1111111
        k(   16) = (   0.0517802  -0.0597906   0.0000000), wk =   0.1111111
        k(   17) = (  -0.0776703   0.0448430   0.0000000), wk =   0.0555556
        k(   18) = (  -0.0776703   0.0747383   0.0000000), wk =   0.1111111
        k(   19) = (  -0.0776703   0.1046336   0.0000000), wk =   0.1111111
        k(   20) = (  -0.0776703  -0.0448430   0.0000000), wk =   0.0555556

     Largest allocated arrays     est. size (Mb)     dimensions
     Largest temporary arrays     est. size (Mb)     dimensions

     Initial potential from superposition of free atoms
     Check: negative starting charge=   -0.000291

     starting charge  136.97116, renormalised to  137.00000

     negative rho (up, down):  2.912E-04 0.000E+00

     *
     * You are using vdW-DF for exchange-correlation in this calculation.
     * Please cite the following three references that made this development
     * possible:
     *
     *   M. Dion, H. Rydberg, E. Schroder, D. C. Langreth, and
     *   B. I. Lundqvist, Phys. Rev. Lett. 92, 246401 (2004).
     *
     *   T. Thonhauser, V. R. Cooper, S. Li, A. Puzder, P. Hyldgaard, and
     *   D. C. Langreth, Phys. Rev. B 76, 125112 (2007).
     *
     *   G. Roman-Perez and J. M. Soler, Phys. Rev. Lett. 103, 096102 (2009).
     *
     *
     * If you are using vdW-DF2, please also cite:
     *
     *   K. Lee, E. D. Murray, L. Kong, B. I. Lundqvist, and
     *   D. C. Langreth, Phys. Rev. B 82, 081101(R) (2010).
     *
     *
     * If you are calculating the stress with vdW-DF, please also cite:
     *
     *   R. Sabatini, E. Kucukbenli, B. Kolb, T. Thonhauser, and
     *   S. de Gironcoli, J. Phys.: Condens. Matter 24, 424209 (2012).
     *

     Carrying out vdW-DF run using the following parameters:

     Nqs =      20    Nr_points =    1024   r_max =   100.000
     q_mesh =
               0.00001000     0.04494208     0.09755937     0.15916263
               0.23128650     0.31572767     0.41458969     0.53033537
               0.66584808     0.82450364     1.01025438     1.22772762
               1.48234092     1.78043706     2.12944203     2.53805004
               3.01644009     3.57652955     4.23227104     5.00000000

     Gradients computed in reciprocal space

     Adding external electric field

     Computed dipole along edir(3) :
        Dipole               -0.0083 Ry au,         -0.0210 Debye
        Dipole field         -0.0000 Ry au

        Potential amp.        0.0016 Ry
        Total length         46.5341 bohr

     Starting wfc are  160 randomized atomic wfcs

     Self-consistent Calculation

     iteration #  1     ecut=    36.75 Ry     beta=0.30
     Davidson diagonalization with overlap
     ethr =  1.00E-02,  avg # of iterations =  2.0

[...]

     total energy              =   -1154.96532786 Ry
     Harris-Foulkes estimate   =   -1158.55179576 Ry
     estimated scf accuracy    <       7.68561766 Ry

[...]

     End of self-consistent calculation

          k = 0.0000 0.0000 0.0000 ( 23031 PWs)   bands (ev):

   -50.0222 -49.9569 -49.9127 -49.9101 -49.9099 -49.7493 -49.7160 -49.7159
   -49.5164 -49.4694 -49.4459 -49.4457 -28.7457 -28.6704 -28.6703 -28.6703
   -28.6454 -28.6454 -28.6366 -28.5794 -28.5783 -28.5781 -28.5079 -28.4112
   -28.4111 -28.4079 -28.3963 -28.3962 -28.3314 -28.3314 -28.3300 -28.3189
   -28.3189 -28.2709 -28.2233 -28.2232 -28.2130 -28.0878 -28.0877 -28.0772
   -28.0432 -28.0260 -28.0258 -27.9906 -27.9905 -27.9761 -27.9068 -27.9067
   -11.5149  -4.7074  -3.5377  -2.2478  -1.6445  -1.6445  -1.5445  -1.4799
    -1.4799  -1.4224  -1.2587  -1.2587  -1.2408  -0.6692  -0.5676  -0.5676
    -0.5460  -0.5460  -0.3992  -0.2211  -0.2211   0.0472   0.0973   0.5058
     0.6216   0.6308   0.6308   0.9090   0.9935   0.9935

[...]

          k =-0.0777 0.0448 0.0000 ( 23032 PWs)   bands (ev):

[...]

     the Fermi energy is    -0.0062 ev

!    total energy              =   -1157.95569144 Ry
     Harris-Foulkes estimate   =   -1157.95570428 Ry
     estimated scf accuracy    <       0.00000071 Ry

     The total energy is the sum of the following terms:

     one-electron contribution =   -7363.34182423 Ry
     hartree contribution      =    3664.13460674 Ry
     xc contribution           =    -171.72215003 Ry
     ewald contribution        =    2713.10330550 Ry
     electric field correction =       0.00063575 Ry
     smearing contrib. (-TS)   =      -0.13026517 Ry

     convergence has been achieved in  21 iterations

 BEEF-vdW xc energy contributions
           1 :   -145.516938909633
           2 :    128.001293286895
           3 :   -100.704749597090
           4 :    74.1640998960237
           5 :   -55.7651099344732
           6 :    46.7884993095774
           7 :   -43.7082446210803
           8 :    41.9063417112687
           9 :   -38.8223976418448
          10 :    34.6922876057029
          11 :   -31.1316879752187
          12 :    29.1970837798210
          13 :   -28.4949691391915
          14 :    27.7621637897196
          15 :   -26.1212274387195
          16 :    23.8105191543651
          17 :   -21.8213202041982
          18 :    20.8991613819989
          19 :   -20.8774269028253
          20 :    20.9001727325673
          21 :   -20.2351261222188
          22 :    18.8885274446495
          23 :   -17.5057211350056
          24 :    16.7267370802852
          25 :   -16.6220492752468
          26 :    16.6918635927227
          27 :   -16.3693919683977
          28 :    15.5309173657148
          29 :   -14.5597725723498
          30 :    13.9497222517119
          31 :   -17.1942488406228
          32 :   -12.3009676366021

     Forces acting on atoms (Ry/au):

     negative rho (up, down):  4.936E-04 0.000E+00
     atom    1 type  1   force =    -0.00001076    0.00001532    0.00135069
     atom    2 type  1   force =     0.00001031   -0.00102496    0.00231998
     atom    3 type  1   force =    -0.00090051    0.00051051    0.00232520
     atom    4 type  1   force =     0.00089861    0.00049812    0.00232265
     atom    5 type  1   force =    -0.00375870    0.00215206   -0.00176623
     atom    6 type  1   force =     0.00376001    0.00214297   -0.00175654
     atom    7 type  1   force =    -0.00000833    0.00002396   -0.01188966
     atom    8 type  1   force =     0.00000948   -0.00431871   -0.00173962
     atom    9 type  1   force =     0.06860283    0.03962670    0.05837563
     atom   10 type  1   force =    -0.06860358    0.03962674    0.05837709
     atom   11 type  1   force =    -0.00000037   -0.07923231    0.05837345
     atom   12 type  1   force =     0.00000002   -0.00001989    0.00372856
     atom   13 type  2   force =     0.00000100   -0.00000051   -0.17002119

     Total force =     0.240781     Total SCF correction =     0.002704

     entering subroutine stress ...

     negative rho (up, down):  4.936E-04 0.000E+00
          total   stress  (Ry/bohr**3)                   (kbar)     P=   -4.76
  -0.00000744   0.00000000   0.00000000         -1.10      0.00      0.00
   0.00000000  -0.00000744  -0.00000000          0.00     -1.10     -0.00
   0.00000000  -0.00000000  -0.00008219          0.00     -0.00    -12.09

     BFGS Geometry Optimization

     number of scf cycles    =   1
     number of bfgs steps    =   0

     energy   new            =   -1157.9556914427 Ry

     new trust radius        =       0.1700211876 bohr
     new conv_thr            =       0.0000099958 Ry

ATOMIC_POSITIONS (crystal)
Sc1      0.166666667   0.166666667   0.395942884    0   0   0
Sc1      0.666666667   0.166666667   0.395942884    0   0   0
Sc1      0.166666667   0.666666667   0.395942884    0   0   0
Sc1      0.666666667   0.666666667   0.395942884    0   0   0
Sc1      0.833333333   0.333333333   0.500000000    0   0   0
Sc1      0.333333333   0.333333333   0.500000000    0   0   0
Sc1      0.833333333   0.833333333   0.500000000    0   0   0
Sc1      0.333333333   0.833333333   0.500000000    0   0   0
Sc1      0.003758666   0.003761348   0.605280225
Sc1      0.492479922   0.003761352   0.605280255
Sc1      0.003760316   0.492479306   0.605280179
Sc1      0.500000946   0.499998112   0.604135238
N1       0.166666773   0.166666618   0.662519217

     Writing output data file calc.save
     Check: negative starting charge=   -0.000291
     NEW-OLD atomic charge density approx. for the potential
     Check: negative starting charge=   -0.000287

[...]

     energy   old            =   -1157.9556914427 Ry
     energy   new            =   -1158.0114693594 Ry

     CASE: energy  _new < energy  _old

     WARNING: bfgs curvature condition failed, Theta= 0.878
     new trust radius        =       0.1870233064 bohr
     new conv_thr            =       0.0000001000 Ry

[...]

     iteration # 14     ecut=    36.75 Ry     beta=0.30
     Davidson diagonalization with overlap
     c_bands:  1 eigenvalues not converged
     ethr =  9.61E-11,  avg # of iterations =  9.8

[...]

     iteration #  9     ecut=    36.75 Ry     beta=0.30
     Davidson diagonalization with overlap
     c_bands:  1 eigenvalues not converged
     ethr =  5.31E-08,  avg # of iterations =  5.8

[...]

     Total force =     0.005357     Total SCF correction =     0.000620
     SCF correction compared to forces is large: reduce conv_thr to get better values

[...]

     Total force =     0.004553     Total SCF correction =     0.000519
     SCF correction compared to forces is large: reduce conv_thr to get better values

[...]

     Threshold (ethr) on eigenvalues was too large:
     Diagonalizing with lowered threshold

     Davidson diagonalization with overlap
     ethr =  4.66E-08,  avg # of iterations =  4.1

[...]

     number of scf cycles    =  14
     number of bfgs steps    =  13

     energy   old            =   -1158.1238974875 Ry
     energy   new            =   -1158.1239628305 Ry

     CASE: energy  _new < energy  _old

     new trust radius        =       0.0358237750 bohr
     new conv_thr            =       0.0000001000 Ry

ATOMIC_POSITIONS (crystal)
Sc1      0.166666667   0.166666667   0.395942884    0   0   0
Sc1      0.666666667   0.166666667   0.395942884    0   0   0
Sc1      0.166666667   0.666666667   0.395942884    0   0   0
Sc1      0.666666667   0.666666667   0.395942884    0   0   0
Sc1      0.833333333   0.333333333   0.500000000    0   0   0
Sc1      0.333333333   0.333333333   0.500000000    0   0   0
Sc1      0.833333333   0.833333333   0.500000000    0   0   0
Sc1      0.333333333   0.833333333   0.500000000    0   0   0
Sc1      0.006410371   0.006411273   0.610687789
Sc1      0.487162008   0.006433937   0.610688533
Sc1      0.006431821   0.487165255   0.610687934
Sc1      0.499997835   0.499995926   0.599677246
N1       0.166659384   0.166664018   0.644166190

     Writing output data file calc.save
     Check: negative starting charge=   -0.000293
     NEW-OLD atomic charge density approx. for the potential
     Check: negative starting charge=   -0.000293

[...]

     Self-consistent Calculation

[...]

     total energy              =   -1158.12403080 Ry
     Harris-Foulkes estimate   =   -1158.12403078 Ry
     estimated scf accuracy    <       0.00000010 Ry

     iteration # 12     ecut=    36.75 Ry     beta=0.30
     Davidson diagonalization with overlap
     ethr =  7.60E-11,  avg # of iterations =  4.2

[...]

     negative rho (up, down):  5.044E-04 0.000E+00

     Adding external electric field

     Computed dipole along edir(3) :
        Dipole               -0.1424 Ry au,         -0.3621 Debye
        Dipole field         -0.0003 Ry au

        Potential amp.        0.0272 Ry
        Total length         46.5341 bohr

     End of self-consistent calculation

[...]

          k = 0.0518-0.0598 0.0000 ( 23012 PWs)   bands (ev):

[...]

          k =-0.0777-0.0448 0.0000 ( 23032 PWs)   bands (ev):

   -49.5203 -49.5045 -49.4881 -49.4814 -49.4467 -49.2127 -49.1906 -49.1646
   -49.1562 -49.0850 -49.0730 -49.0629 -28.1977 -28.1887 -28.1864 -28.1797
   -28.1736 -28.1533 -28.1456 -28.0882 -28.0769 -28.0597 -28.0571 -28.0482
   -28.0078 -27.9771 -27.9523 -27.9435 -27.8922 -27.8742 -27.8678 -27.8480
   -27.8356 -27.8004 -27.7938 -27.7795 -27.7608 -27.7554 -27.6803 -27.6607
   -27.6566 -27.6472 -27.6391 -27.6375 -27.6295 -27.6042 -27.5707 -27.5486
   -12.3473  -3.2089  -2.9797  -2.5859  -2.4468  -2.2200  -1.8138  -1.5399
    -1.0378  -1.0170  -0.7167  -0.5818  -0.4803  -0.3859   0.1545   0.1773
     0.2398   0.2590   0.2976   0.3475   0.4778   0.4940   0.5675   0.6126
     0.6281   0.6919   0.8085   0.8263   0.9705   0.9971

     the Fermi energy is     0.4082 ev

!    total energy              =   -1158.12403082 Ry
     Harris-Foulkes estimate   =   -1158.12403079 Ry
     estimated scf accuracy    <       0.00000002 Ry

     The total energy is the sum of the following terms:

     one-electron contribution =   -7368.40868659 Ry
     hartree contribution      =    3668.47481758 Ry
     xc contribution           =    -172.09285462 Ry
     ewald contribution        =    2714.03671647 Ry
     electric field correction =       0.00004169 Ry
     smearing contrib. (-TS)   =      -0.13406534 Ry

     convergence has been achieved in  12 iterations

 BEEF-vdW xc energy contributions
           1 :   -145.890558608895
           2 :    128.454066996541
           3 :   -101.225765322198
           4 :    74.6567838991384
           5 :   -56.1059244459008
           6 :    46.8785115912852
           7 :   -43.5147690153982
           8 :    41.4953879233080
           9 :   -38.3492455893295
          10 :    34.3230466764743
          11 :   -30.9357647757877
          12 :    29.1036892759445
          13 :   -28.3643326511507
          14 :    27.5126368133655
          15 :   -25.7958049961261
          16 :    23.5236960971661
          17 :   -21.6414194942141
          18 :    20.7786534793451
          19 :   -20.6934517171953
          20 :    20.5641778247305
          21 :   -19.7698187328853
          22 :    18.4027417834662
          23 :   -17.0933532276091
          24 :    16.3868088907580
          25 :   -16.2744888143525
          26 :    16.2677275834720
          27 :   -15.8824480541101
          28 :    15.0614747859993
          29 :   -14.1718443487279
          30 :    13.6255830152952
          31 :   -17.2158433552946
          32 :   -12.3368873786990

     Forces acting on atoms (Ry/au):

     negative rho (up, down):  5.044E-04 0.000E+00
     atom    1 type  1   force =    -0.00000854   -0.00000489    0.00367080
     atom    2 type  1   force =     0.00000918   -0.00210861    0.00313950
     atom    3 type  1   force =    -0.00182178    0.00106224    0.00313880
     atom    4 type  1   force =     0.00182053    0.00105093    0.00314494
     atom    5 type  1   force =    -0.00345379    0.00198939   -0.00353018
     atom    6 type  1   force =     0.00344614    0.00198974   -0.00353031
     atom    7 type  1   force =     0.00000459    0.00000305   -0.00107794
     atom    8 type  1   force =    -0.00000407   -0.00398633   -0.00352929
     atom    9 type  1   force =    -0.00113585   -0.00065562   -0.00093806
     atom   10 type  1   force =     0.00114724   -0.00068172   -0.00094617
     atom   11 type  1   force =    -0.00001674    0.00133331   -0.00094563
     atom   12 type  1   force =     0.00001517    0.00000996   -0.00017159
     atom   13 type  2   force =    -0.00000209   -0.00000148    0.00157512

     Total force =     0.003234     Total SCF correction =     0.000240

     entering subroutine stress ...

     negative rho (up, down):  5.044E-04 0.000E+00
          total   stress  (Ry/bohr**3)                   (kbar)     P=    4.19
   0.00005063   0.00000001  -0.00000000          7.45      0.00     -0.00
   0.00000001   0.00005061  -0.00000000          0.00      7.45     -0.00
  -0.00000000  -0.00000000  -0.00001569         -0.00     -0.00     -2.31

     bfgs converged in  15 scf cycles and  14 bfgs steps
     (criteria: energy <  1.0E+00, force <  1.9E-03)

     End of BFGS Geometry Optimization

     Final energy   =   -1158.1240308157 Ry
Begin final coordinates

ATOMIC_POSITIONS (crystal)
Sc1      0.166666667   0.166666667   0.395942884    0   0   0
Sc1      0.666666667   0.166666667   0.395942884    0   0   0
Sc1      0.166666667   0.666666667   0.395942884    0   0   0
Sc1      0.666666667   0.666666667   0.395942884    0   0   0
Sc1      0.833333333   0.333333333   0.500000000    0   0   0
Sc1      0.333333333   0.333333333   0.500000000    0   0   0
Sc1      0.833333333   0.833333333   0.500000000    0   0   0
Sc1      0.333333333   0.833333333   0.500000000    0   0   0
Sc1      0.006410371   0.006411273   0.610687789
Sc1      0.487162008   0.006433937   0.610688533
Sc1      0.006431821   0.487165255   0.610687934
Sc1      0.499997835   0.499995926   0.599677246
N1       0.166659384   0.166664018   0.644166190
End final coordinates

     Writing output data file calc.save

     General routines

     Parallel routines

   This run was terminated on:  17:23:20   2May2018

   JOB DONE.
Job  /afs/slac/g/suncat/bin/suncat-tsmpirun -x LD_LIBRARY_PATH -wdir /scratch/qe774928_EYIE5 pw.x -npool 4 -in pw.inp

TID   HOST_NAME   COMMAND_LINE            STATUS            TERMINATION_TIME
00000 suncat0026 pw.x -npool 4 -i  Done                     05/02/2018 17:23:20
00001 suncat0026 pw.x -npool 4 -i  Done                     05/02/2018 17:23:20
00002 suncat0026 pw.x -npool 4 -i  Done                     05/02/2018 17:23:20
00003 suncat0026 pw.x -npool 4 -i  Done                     05/02/2018 17:23:20
00004 suncat0026 pw.x -npool 4 -i  Done                     05/02/2018 17:23:20
00005 suncat0026 pw.x -npool 4 -i  Done                     05/02/2018 17:23:20
00006 suncat0026 pw.x -npool 4 -i  Done                     05/02/2018 17:23:20
00007 suncat0026 pw.x -npool 4 -i  Done                     05/02/2018 17:23:20
00008 suncat0015 pw.x -npool 4 -i  Done                     05/02/2018 17:23:20
00009 suncat0015 pw.x -npool 4 -i  Done                     05/02/2018 17:23:20
00010 suncat0015 pw.x -npool 4 -i  Done                     05/02/2018 17:23:20
00011 suncat0015 pw.x -npool 4 -i  Done                     05/02/2018 17:23:20
00012 suncat0015 pw.x -npool 4 -i  Done                     05/02/2018 17:23:20
00013 suncat0015 pw.x -npool 4 -i  Done                     05/02/2018 17:23:20
00014 suncat0015 pw.x -npool 4 -i  Done                     05/02/2018 17:23:20
00015 suncat0015 pw.x -npool 4 -i  Done                     05/02/2018 17:23:20
00016 suncat0276 pw.x -npool 4 -i  Done                     05/02/2018 17:23:20
00017 suncat0276 pw.x -npool 4 -i  Done                     05/02/2018 17:23:20
00018 suncat0276 pw.x -npool 4 -i  Done                     05/02/2018 17:23:20
00019 suncat0276 pw.x -npool 4 -i  Done                     05/02/2018 17:23:20
00020 suncat0276 pw.x -npool 4 -i  Done                     05/02/2018 17:23:20
00021 suncat0276 pw.x -npool 4 -i  Done                     05/02/2018 17:23:20
00022 suncat0276 pw.x -npool 4 -i  Done                     05/02/2018 17:23:20
00023 suncat0276 pw.x -npool 4 -i  Done                     05/02/2018 17:23:20
00024 suncat0270 pw.x -npool 4 -i  Done                     05/02/2018 17:23:20
00025 suncat0270 pw.x -npool 4 -i  Done                     05/02/2018 17:23:20
00026 suncat0270 pw.x -npool 4 -i  Done                     05/02/2018 17:23:20
00027 suncat0270 pw.x -npool 4 -i  Done                     05/02/2018 17:23:20
00028 suncat0270 pw.x -npool 4 -i  Done                     05/02/2018 17:23:20
00029 suncat0270 pw.x -npool 4 -i  Done                     05/02/2018 17:23:20
00030 suncat0270 pw.x -npool 4 -i  Done                     05/02/2018 17:23:20
00031 suncat0270 pw.x -npool 4 -i  Done                     05/02/2018 17:23:20