     Program PWSCF v.5.1rc2 (svn rev. 11289) starts on 24Apr2018 at 16: 1: 4

     Current dimensions of program PWSCF are:
     Max number of different atomic species (ntypx) = 10
     Max number of k-points (npk) =  40000
     Max angular momentum in pseudopotentials (lmaxx) =  3
     Presently stress not available with electric field

     IMPORTANT: XC functional enforced from input :
     Exchange-correlation      = BEEF-VDW ( 1  4 27 13 2)
     Any further DFT definition will be discarded
     Please, verify this is what you really want

     Subspace diagonalization in iterative solution of the eigenvalue problem:
     a serial algorithm will be used

     bravais-lattice index     =            0
     lattice parameter (alat)  =       1.8897  a.u.
     unit-cell volume          =    4704.3541 (a.u.)^3
     number of atoms/cell      =           14
     number of atomic types    =            3
     number of electrons       =       174.00
     number of Kohn-Sham states=           97
     kinetic-energy cutoff     =      36.7493  Ry
     charge density cutoff     =     367.4932  Ry
     convergence threshold     =      1.0E-05
     mixing beta               =       0.3000
     number of iterations used =           10  plain     mixing
     Exchange-correlation      = BEEF-VDW ( 1  4 27 13 2)
     nstep                     =           50

     celldm(1)=   1.889726  celldm(2)=   0.000000  celldm(3)=   0.000000
     celldm(4)=   0.000000  celldm(5)=   0.000000  celldm(6)=   0.000000

     crystal axes: (cart. coord. in units of alat)
               a(1) = (   5.712816   0.000000   0.000000 )
               a(2) = (   2.856408   4.947444   0.000000 )
               a(3) = (   0.000000   0.000000  24.664495 )

     reciprocal axes: (cart. coord. in units 2 pi/alat)
               b(1) = (  0.175045 -0.101062  0.000000 )
               b(2) = (  0.000000  0.202125  0.000000 )
               b(3) = (  0.000000  0.000000  0.040544 )

     PseudoPot. # 1 for W  read from file:
     /u/if/mamunm/psp/gbrv1.5pbe/W.UPF
     MD5 check sum: 9c083fa34c2a2ea0f02f1f893e16e1c8
     Pseudo is Ultrasoft + core correction, Zval = 14.0
     Generated by new atomic code, or converted to UPF format
     Using radial grid of  923 points,  8 beta functions with:
                l(1) =   0
                l(2) =   0
                l(3) =   0
                l(4) =   1
                l(5) =   1
                l(6) =   2
                l(7) =   2
                l(8) =   3
     Q(r) pseudized with  6 coefficients,  rinner =    1.350   1.350   1.350
                                                       1.350   1.350   1.350
                                                       1.350

     PseudoPot. # 2 for N  read from file:
     /u/if/mamunm/psp/gbrv1.5pbe/N.UPF
     MD5 check sum: 95339753478d7afb44899504a8723017
     Pseudo is Ultrasoft + core correction, Zval =  5.0
     Generated by new atomic code, or converted to UPF format
     Using radial grid of  729 points,  4 beta functions with:
                l(1) =   0
                l(2) =   0
                l(3) =   1
                l(4) =   1
     Q(r) pseudized with  8 coefficients,  rinner =    0.900   0.900   0.900

     PseudoPot. # 3 for H  read from file:
     /u/if/mamunm/psp/gbrv1.5pbe/H.UPF
     MD5 check sum: 761ae9a214b05c3daf00ab9f6b793d6f
     Pseudo is Ultrasoft, Zval =  1.0
     Generated by new atomic code, or converted to UPF format
     Using radial grid of  615 points,  2 beta functions with:
                l(1) =   0
                l(2) =   0
     Q(r) pseudized with  8 coefficients,  rinner =    0.700

     vdW kernel table read from file vdW_kernel_table
     MD5 check sum: 095c7af220d748ca6e76c0b4c6cfb241

     atomic species   valence    mass     pseudopotential
        W1            14.00   183.84000     W ( 1.00)
        N1             5.00    14.00700     N ( 1.00)
        H1             1.00     1.00800     H ( 1.00)

     No symmetry found

   Cartesian axes

     site n.     atom                  positions (alat units)
         1           W1  tau(   1) = (   1.4282041   0.8245740  10.0000000  )
         2           W1  tau(   2) = (   4.2846123   0.8245740  10.0000000  )
         3           W1  tau(   3) = (   2.8564082   3.2982961  10.0000000  )
         4           W1  tau(   4) = (   5.7128165   3.2982961  10.0000000  )
         5           W1  tau(   5) = (   5.7128165   1.6491481  12.3322476  )
         6           W1  tau(   6) = (   2.8564082   1.6491481  12.3322476  )
         7           W1  tau(   7) = (   7.1410206   4.1228701  12.3322476  )
         8           W1  tau(   8) = (   4.2846123   4.1228701  12.3322476  )
         9           W1  tau(   9) = (   0.0000000   0.0000000  14.6644951  )
        10           W1  tau(  10) = (   2.8564082   0.0000000  14.6644951  )
        11           W1  tau(  11) = (   1.4282041   2.4737221  14.6644951  )
        12           W1  tau(  12) = (   4.2846123   2.4737221  14.6644951  )
        13           N1  tau(  13) = (   0.0000000   0.0000000  16.6449951  )
        14           H1  tau(  14) = (   0.0000000   0.0000000  17.6949951  )

     number of k points=    20  Fermi-Dirac smearing, width (Ry)=  0.0110
                       cart. coord. in units 2pi/alat
        k(    1) = (   0.0000000   0.0000000   0.0000000), wk =   0.0555556
        k(    2) = (   0.0000000   0.0336874   0.0000000), wk =   0.1111111
        k(    3) = (   0.0000000   0.0673749   0.0000000), wk =   0.1111111
        k(    4) = (   0.0000000  -0.1010623   0.0000000), wk =   0.0555556
        k(    5) = (   0.0291742  -0.0168437   0.0000000), wk =   0.1111111
        k(    6) = (   0.0291742   0.0168437   0.0000000), wk =   0.1111111
        k(    7) = (   0.0291742   0.0505311   0.0000000), wk =   0.1111111
        k(    8) = (   0.0291742  -0.1179060   0.0000000), wk =   0.1111111
        k(    9) = (   0.0291742  -0.0842186   0.0000000), wk =   0.1111111
        k(   10) = (   0.0291742  -0.0505311   0.0000000), wk =   0.1111111
        k(   11) = (   0.0583483  -0.0336874   0.0000000), wk =   0.1111111
        k(   12) = (   0.0583483  -0.0000000   0.0000000), wk =   0.1111111
        k(   13) = (   0.0583483   0.0336874   0.0000000), wk =   0.1111111
        k(   14) = (   0.0583483  -0.1347497   0.0000000), wk =   0.1111111
        k(   15) = (   0.0583483  -0.1010623   0.0000000), wk =   0.1111111
        k(   16) = (   0.0583483  -0.0673749   0.0000000), wk =   0.1111111
        k(   17) = (  -0.0875225   0.0505311   0.0000000), wk =   0.0555556
        k(   18) = (  -0.0875225   0.0842186   0.0000000), wk =   0.1111111
        k(   19) = (  -0.0875225   0.1179060   0.0000000), wk =   0.1111111
        k(   20) = (  -0.0875225  -0.0505311   0.0000000), wk =   0.0555556

     Largest allocated arrays     est. size (Mb)     dimensions
     Largest temporary arrays     est. size (Mb)     dimensions

     Initial potential from superposition of free atoms
     Check: negative starting charge=   -0.760334

     starting charge  172.79590, renormalised to  174.00000

     negative rho (up, down):  7.656E-01 0.000E+00

     *
     * You are using vdW-DF for exchange-correlation in this calculation.
     * Please cite the following three references that made this development
     * possible:
     *
     *   M. Dion, H. Rydberg, E. Schroder, D. C. Langreth, and
     *   B. I. Lundqvist, Phys. Rev. Lett. 92, 246401 (2004).
     *
     *   T. Thonhauser, V. R. Cooper, S. Li, A. Puzder, P. Hyldgaard, and
     *   D. C. Langreth, Phys. Rev. B 76, 125112 (2007).
     *
     *   G. Roman-Perez and J. M. Soler, Phys. Rev. Lett. 103, 096102 (2009).
     *
     *
     * If you are using vdW-DF2, please also cite:
     *
     *   K. Lee, E. D. Murray, L. Kong, B. I. Lundqvist, and
     *   D. C. Langreth, Phys. Rev. B 82, 081101(R) (2010).
     *
     *
     * If you are calculating the stress with vdW-DF, please also cite:
     *
     *   R. Sabatini, E. Kucukbenli, B. Kolb, T. Thonhauser, and
     *   S. de Gironcoli, J. Phys.: Condens. Matter 24, 424209 (2012).
     *

     Carrying out vdW-DF run using the following parameters:

     Nqs =      20    Nr_points =    1024   r_max =   100.000
     q_mesh =
               0.00001000     0.04494208     0.09755937     0.15916263
               0.23128650     0.31572767     0.41458969     0.53033537
               0.66584808     0.82450364     1.01025438     1.22772762
               1.48234092     1.78043706     2.12944203     2.53805004
               3.01644009     3.57652955     4.23227104     5.00000000

     Gradients computed in reciprocal space

     Adding external electric field

     Computed dipole along edir(3) :
        Dipole               -0.3544 Ry au,         -0.9008 Debye
        Dipole field         -0.0009 Ry au

        Potential amp.        0.0860 Ry
        Total length         45.4439 bohr

     Starting wfc are  161 randomized atomic wfcs

     Self-consistent Calculation

     iteration #  1     ecut=    36.75 Ry     beta=0.30
     Davidson diagonalization with overlap
     ethr =  1.00E-02,  avg # of iterations =  2.0

[...]

     total energy              =   -1943.59808060 Ry
     Harris-Foulkes estimate   =   -1946.70789382 Ry
     estimated scf accuracy    <       6.67203463 Ry

[...]

     End of self-consistent calculation

          k = 0.0000 0.0000 0.0000 ( 17753 PWs)   bands (ev):

   -71.5636 -71.3521 -71.3039 -71.2988 -71.2984 -71.2625 -71.2196 -71.2038
   -71.2036 -71.2020 -71.1827 -71.1826 -35.9673 -35.9450 -35.9449 -35.8722
   -35.8722 -35.8677 -35.8285 -35.7162 -35.7161 -35.7049 -35.6314 -35.4972
   -35.4264 -35.4260 -35.3445 -35.3361 -35.3360 -35.2729 -35.2729 -35.2328
   -35.1677 -35.1569 -35.1569 -35.1223 -35.1137 -35.1137 -35.0684 -35.0266
   -35.0266 -35.0097 -34.9968 -34.9967 -34.9359 -34.9359 -34.8400 -34.8400
   -12.0134  -5.3501  -3.9451  -3.3256  -2.7029  -2.1519  -2.1519  -2.0906
    -1.9354  -1.9354  -1.7887  -1.2006  -1.2006  -1.1506  -1.1284  -1.1283
    -1.0130  -0.2106  -0.2105   0.3594   1.0659   1.0659   1.5299   1.6243
     1.8325   1.8325   1.9077   2.3123   2.3123   2.3745   2.4377   2.4378
     2.6228   2.6228   2.7358   2.7540   2.7540   2.8842   2.8842   3.0230
     3.5863   3.7154   4.0188   4.0188   4.5206   4.5368   4.5368   4.7710
     5.1095

[...]

          k =-0.0875 0.0505 0.0000 ( 17668 PWs)   bands (ev):

[...]

     the Fermi energy is     2.9068 ev

!    total energy              =   -1946.24454438 Ry
     Harris-Foulkes estimate   =   -1946.24453522 Ry
     estimated scf accuracy    <       0.00000298 Ry

     The total energy is the sum of the following terms:

     one-electron contribution =  -14937.56765057 Ry
     hartree contribution      =    7456.76616359 Ry
     xc contribution           =    -516.47846939 Ry
     ewald contribution        =    6051.13179924 Ry
     electric field correction =       0.00029631 Ry
     smearing contrib. (-TS)   =      -0.09668356 Ry

     convergence has been achieved in  17 iterations

 BEEF-vdW xc energy contributions
           1 :   -454.258850825137
           2 :    420.057084882191
           3 :   -359.915498720738
           4 :    287.092857630173
           5 :   -215.290799726986
           6 :    154.713839525302
           7 :   -109.943204119235
           8 :    80.0741285939272
           9 :   -60.6862885116324
          10 :    46.5530074895275
          11 :   -33.8831253368297
          12 :    21.3047228278233
          13 :   -9.50775508820868
          14 :   5.239048637577071E-002
          15 :    5.90740549062315
          16 :   -8.36565344066139
          17 :    8.43421816722952
          18 :   -7.72142528708082
          19 :    7.53390484562254
          20 :   -8.33054276288465
          21 :    9.67892300805215
          22 :   -10.6813601214776
          23 :    10.5918470238449
          24 :   -9.27380100183495
          25 :    7.26782157444086
          26 :   -5.46970093073600
          27 :    4.62625585717035
          28 :   -4.93962808060246
          29 :    5.98902444244669
          30 :   -6.99179866288637
          31 :   -41.2655232449987
          32 :   -30.8704419417583

     Forces acting on atoms (Ry/au):

     negative rho (up, down):  7.924E-01 0.000E+00
     atom    1 type  1   force =     0.00093854    0.00054059   -0.00199030
     atom    2 type  1   force =    -0.00094013    0.00054684   -0.00199709
     atom    3 type  1   force =     0.00000496   -0.00108708   -0.00196107
     atom    4 type  1   force =    -0.00000588   -0.00000287   -0.00464375
     atom    5 type  1   force =    -0.00001343   -0.00001704   -0.00026743
     atom    6 type  1   force =     0.00001402    0.00003259    0.01226312
     atom    7 type  1   force =     0.00003849   -0.00000092   -0.00030984
     atom    8 type  1   force =    -0.00003969   -0.00001659   -0.00029832
     atom    9 type  1   force =     0.00000916    0.00000261    0.21377227
     atom   10 type  1   force =    -0.00001093    0.00417332   -0.02741878
     atom   11 type  1   force =     0.00361151   -0.00209504   -0.02742966
     atom   12 type  1   force =    -0.00360666   -0.00207509   -0.02746398
     atom   13 type  2   force =     0.00000009   -0.00000039   -0.08395430
     atom   14 type  3   force =    -0.00000005   -0.00000091   -0.04830087

     Total force =     0.239563     Total SCF correction =     0.005953

     entering subroutine stress ...

     negative rho (up, down):  7.924E-01 0.000E+00
          total   stress  (Ry/bohr**3)                   (kbar)     P=  -50.29
  -0.00041179   0.00000001   0.00000001        -60.58      0.00      0.00
   0.00000001  -0.00041180   0.00000000          0.00    -60.58      0.00
   0.00000001   0.00000000  -0.00020194          0.00      0.00    -29.71

     BFGS Geometry Optimization

     number of scf cycles    =   1
     number of bfgs steps    =   0

     energy   new            =   -1946.2445443769 Ry

     new trust radius        =       0.2137722665 bohr
     new conv_thr            =       0.0000099958 Ry

ATOMIC_POSITIONS (crystal)
W1       0.166666667   0.166666667   0.405441099    0   0   0
W1       0.666666667   0.166666667   0.405441099    0   0   0
W1       0.166666667   0.666666667   0.405441099    0   0   0
W1       0.666666667   0.666666667   0.405441099    0   0   0
W1       0.833333333   0.333333333   0.500000000    0   0   0
W1       0.333333333   0.333333333   0.500000000    0   0   0
W1       0.833333333   0.833333333   0.500000000    0   0   0
W1       0.333333333   0.833333333   0.500000000    0   0   0
W1       0.000000709   0.000000279   0.599145389
W1       0.499775799   0.000446377   0.593970631
W1       0.000446576   0.499775915   0.593970397
W1       0.499776891   0.499778049   0.593969661
N1       0.000000029  -0.000000042   0.673055270
H1       0.000000044  -0.000000097   0.716391530

     Writing output data file calc.save
     Check: negative starting charge=   -0.760334
     NEW-OLD atomic charge density approx. for the potential
     Check: negative starting charge=   -0.762089

[...]

     iteration #  1     ecut=    36.75 Ry     beta=0.30
     Davidson diagonalization with overlap
     c_bands:  1 eigenvalues not converged
     ethr =  1.00E-06,  avg # of iterations = 16.2

[...]

     energy   old            =   -1946.2445443769 Ry
     energy   new            =   -1946.2886765651 Ry

     CASE: energy  _new < energy  _old

[...]

     Total force =     0.010383     Total SCF correction =     0.000137

[...]

     number of scf cycles    =  14
     number of bfgs steps    =  13

     energy   old            =   -1946.3442719316 Ry
     energy   new            =   -1946.3443767442 Ry

     CASE: energy  _new < energy  _old

     new trust radius        =       0.0047193328 bohr
     new conv_thr            =       0.0000001000 Ry

ATOMIC_POSITIONS (crystal)
W1       0.166666667   0.166666667   0.405441099    0   0   0
W1       0.666666667   0.166666667   0.405441099    0   0   0
W1       0.166666667   0.666666667   0.405441099    0   0   0
W1       0.666666667   0.666666667   0.405441099    0   0   0
W1       0.833333333   0.333333333   0.500000000    0   0   0
W1       0.333333333   0.333333333   0.500000000    0   0   0
W1       0.833333333   0.833333333   0.500000000    0   0   0
W1       0.333333333   0.833333333   0.500000000    0   0   0
W1      -0.000000993  -0.000000696   0.614912141
W1       0.503347708  -0.006697189   0.588253053
W1      -0.006698217   0.503346518   0.588253280
W1       0.503345562   0.503349443   0.588252073
N1      -0.000000196  -0.000000032   0.686555812
H1       0.000000657   0.000000509   0.727651688

     Writing output data file calc.save
     Check: negative starting charge=   -0.761598
     NEW-OLD atomic charge density approx. for the potential
     Check: negative starting charge=   -0.761496

[...]

     Self-consistent Calculation

[...]

     Threshold (ethr) on eigenvalues was too large:
     Diagonalizing with lowered threshold

     Davidson diagonalization with overlap
     ethr =  1.85E-08,  avg # of iterations =  4.0

[...]

     total energy              =   -1946.34441401 Ry
     Harris-Foulkes estimate   =   -1946.34441420 Ry
     estimated scf accuracy    <       0.00000015 Ry

     iteration #  9     ecut=    36.75 Ry     beta=0.30
     Davidson diagonalization with overlap
     ethr =  8.46E-11,  avg # of iterations =  3.0

[...]

     negative rho (up, down):  7.934E-01 0.000E+00

     Adding external electric field

     Computed dipole along edir(3) :
        Dipole                0.2723 Ry au,          0.6921 Debye
        Dipole field          0.0007 Ry au

        Potential amp.       -0.0661 Ry
        Total length         45.4439 bohr

     End of self-consistent calculation

[...]

          k = 0.0583-0.0674 0.0000 ( 17692 PWs)   bands (ev):

[...]

          k =-0.0875-0.0505 0.0000 ( 17668 PWs)   bands (ev):

   -71.4245 -71.3402 -71.3290 -71.2978 -71.2901 -71.2893 -71.2801 -71.2548
   -71.2414 -71.1970 -71.1804 -71.1706 -35.9147 -35.8289 -35.8134 -35.7961
   -35.7399 -35.7171 -35.7080 -35.6422 -35.5994 -35.5830 -35.5816 -35.5545
   -35.4948 -35.4152 -35.3723 -35.3620 -35.3604 -35.3452 -35.3322 -35.3198
   -35.3016 -35.3011 -35.2827 -35.2303 -35.1767 -35.1654 -35.1598 -35.1463
   -35.0864 -35.0601 -35.0343 -35.0201 -35.0091 -34.9800 -34.9782 -34.9109
   -12.1929  -4.3046  -3.4492  -3.2265  -1.9496  -1.6772  -1.2052  -1.1720
    -1.1689  -1.0018  -0.9878  -0.8790  -0.5217  -0.4146  -0.1979   0.0066
     0.0282   0.1835   0.2558   0.3847   0.5199   0.6800   0.7488   0.8878
     0.9839   1.0962   1.2692   1.5288   1.6116   1.6436   1.7293   1.7679
     1.7880   1.9621   2.0334   2.1273   2.1548   2.4187   2.4370   2.6525
     2.9015   3.0031   3.6137   3.7228   3.8303   3.8763   4.1143   4.1511
     4.2964

     the Fermi energy is     2.8338 ev

!    total energy              =   -1946.34441400 Ry
     Harris-Foulkes estimate   =   -1946.34441378 Ry
     estimated scf accuracy    <       0.00000004 Ry

     The total energy is the sum of the following terms:

     one-electron contribution =  -14825.52508763 Ry
     hartree contribution      =    7400.71031981 Ry
     xc contribution           =    -516.71833216 Ry
     ewald contribution        =    5995.27531440 Ry
     electric field correction =       0.00019808 Ry
     smearing contrib. (-TS)   =      -0.08682651 Ry

     convergence has been achieved in   9 iterations

 BEEF-vdW xc energy contributions
           1 :   -454.490045225733
           2 :    420.284935205469
           3 :   -360.154995750480
           4 :    287.341068793691
           5 :   -215.500532785428
           6 :    154.813330489064
           7 :   -109.877267946564
           8 :    79.8383045415300
           9 :   -60.3338043884249
          10 :    46.1706957404095
          11 :   -33.5495146160524
          12 :    21.0534707328575
          13 :   -9.31386326236031
          14 :  -0.156507011043004
          15 :    6.21521635951387
          16 :   -8.82005114101969
          17 :    9.01549751871880
          18 :   -8.34293541230898
          19 :    8.07312217290735
          20 :   -8.68281878689709
          21 :    9.81103525219504
          22 :   -10.6546777573676
          23 :    10.5379388397379
          24 :   -9.33068204728448
          25 :    7.50772424986997
          26 :   -5.85926574941971
          27 :    5.04596088807045
          28 :   -5.25202874904596
          29 :    6.11499198906353
          30 :   -6.95373404141748
          31 :   -41.2772806165709
          32 :   -30.8789028328890

     Forces acting on atoms (Ry/au):

     negative rho (up, down):  7.934E-01 0.000E+00
     atom    1 type  1   force =     0.00089017    0.00051398    0.00586154
     atom    2 type  1   force =    -0.00088968    0.00051336    0.00586142
     atom    3 type  1   force =    -0.00000015   -0.00102735    0.00586145
     atom    4 type  1   force =     0.00000059    0.00000020   -0.00800286
     atom    5 type  1   force =     0.00000162   -0.03813202    0.00570329
     atom    6 type  1   force =    -0.00000080   -0.00000049   -0.02628097
     atom    7 type  1   force =     0.03302314    0.01906529    0.00570667
     atom    8 type  1   force =    -0.03302255    0.01906752    0.00570220
     atom    9 type  1   force =    -0.00000062    0.00000044   -0.00057872
     atom   10 type  1   force =     0.00000136   -0.00064545    0.00011713
     atom   11 type  1   force =    -0.00055990    0.00032341    0.00011585
     atom   12 type  1   force =     0.00055691    0.00032123    0.00012313
     atom   13 type  2   force =    -0.00000002   -0.00000006    0.00007559
     atom   14 type  3   force =    -0.00000007   -0.00000005   -0.00026571

     Total force =     0.001304     Total SCF correction =     0.000411
     SCF correction compared to forces is large: reduce conv_thr to get better values

     entering subroutine stress ...

     negative rho (up, down):  7.934E-01 0.000E+00
          total   stress  (Ry/bohr**3)                   (kbar)     P=  -39.30
  -0.00035498   0.00000000  -0.00000000        -52.22      0.00     -0.00
   0.00000000  -0.00035498  -0.00000000          0.00    -52.22     -0.00
  -0.00000000  -0.00000000  -0.00009157         -0.00     -0.00    -13.47

     bfgs converged in  15 scf cycles and  14 bfgs steps
     (criteria: energy <  1.0E+00, force <  1.9E-03)

     End of BFGS Geometry Optimization

     Final energy   =   -1946.3444140031 Ry
Begin final coordinates

ATOMIC_POSITIONS (crystal)
W1       0.166666667   0.166666667   0.405441099    0   0   0
W1       0.666666667   0.166666667   0.405441099    0   0   0
W1       0.166666667   0.666666667   0.405441099    0   0   0
W1       0.666666667   0.666666667   0.405441099    0   0   0
W1       0.833333333   0.333333333   0.500000000    0   0   0
W1       0.333333333   0.333333333   0.500000000    0   0   0
W1       0.833333333   0.833333333   0.500000000    0   0   0
W1       0.333333333   0.833333333   0.500000000    0   0   0
W1      -0.000000993  -0.000000696   0.614912141
W1       0.503347708  -0.006697189   0.588253053
W1      -0.006698217   0.503346518   0.588253280
W1       0.503345562   0.503349443   0.588252073
N1      -0.000000196  -0.000000032   0.686555812
H1       0.000000657   0.000000509   0.727651688
End final coordinates

     Writing output data file calc.save

     General routines

     Parallel routines

   This run was terminated on:  18:20:27  24Apr2018

   JOB DONE.
Job  /afs/slac/g/suncat/bin/suncat-tsmpirun -x LD_LIBRARY_PATH -wdir /scratch/qe930866_V6CUy pw.x -npool 4 -in pw.inp

TID   HOST_NAME   COMMAND_LINE            STATUS            TERMINATION_TIME
00000 suncat0017 pw.x -npool 4 -i  Done                     04/24/2018 18:20:27
00001 suncat0017 pw.x -npool 4 -i  Done                     04/24/2018 18:20:27
00002 suncat0017 pw.x -npool 4 -i  Done                     04/24/2018 18:20:27
00003 suncat0017 pw.x -npool 4 -i  Done                     04/24/2018 18:20:27
00004 suncat0017 pw.x -npool 4 -i  Done                     04/24/2018 18:20:27
00005 suncat0017 pw.x -npool 4 -i  Done                     04/24/2018 18:20:27
00006 suncat0017 pw.x -npool 4 -i  Done                     04/24/2018 18:20:27
00007 suncat0017 pw.x -npool 4 -i  Done                     04/24/2018 18:20:27
00008 suncat0198 pw.x -npool 4 -i  Done                     04/24/2018 18:20:27
00009 suncat0198 pw.x -npool 4 -i  Done                     04/24/2018 18:20:27
00010 suncat0198 pw.x -npool 4 -i  Done                     04/24/2018 18:20:27
00011 suncat0198 pw.x -npool 4 -i  Done                     04/24/2018 18:20:27
00012 suncat0198 pw.x -npool 4 -i  Done                     04/24/2018 18:20:27
00013 suncat0198 pw.x -npool 4 -i  Done                     04/24/2018 18:20:27
00014 suncat0198 pw.x -npool 4 -i  Done                     04/24/2018 18:20:27
00015 suncat0198 pw.x -npool 4 -i  Done                     04/24/2018 18:20:27
00016 suncat0007 pw.x -npool 4 -i  Done                     04/24/2018 18:20:27
00017 suncat0007 pw.x -npool 4 -i  Done                     04/24/2018 18:20:27
00018 suncat0007 pw.x -npool 4 -i  Done                     04/24/2018 18:20:27
00019 suncat0007 pw.x -npool 4 -i  Done                     04/24/2018 18:20:27
00020 suncat0007 pw.x -npool 4 -i  Done                     04/24/2018 18:20:27
00021 suncat0007 pw.x -npool 4 -i  Done                     04/24/2018 18:20:27
00022 suncat0007 pw.x -npool 4 -i  Done                     04/24/2018 18:20:27
00023 suncat0007 pw.x -npool 4 -i  Done                     04/24/2018 18:20:27
00024 suncat0006 pw.x -npool 4 -i  Done                     04/24/2018 18:20:27
00025 suncat0006 pw.x -npool 4 -i  Done                     04/24/2018 18:20:27
00026 suncat0006 pw.x -npool 4 -i  Done                     04/24/2018 18:20:27
00027 suncat0006 pw.x -npool 4 -i  Done                     04/24/2018 18:20:27
00028 suncat0006 pw.x -npool 4 -i  Done                     04/24/2018 18:20:27
00029 suncat0006 pw.x -npool 4 -i  Done                     04/24/2018 18:20:27
00030 suncat0006 pw.x -npool 4 -i  Done                     04/24/2018 18:20:27
00031 suncat0006 pw.x -npool 4 -i  Done                     04/24/2018 18:20:27