     Program PWSCF v.5.1rc2 (svn rev. 11289) starts on  2May2018 at 14:54:40

     Current dimensions of program PWSCF are:
     Max number of different atomic species (ntypx) = 10
     Max number of k-points (npk) =  40000
     Max angular momentum in pseudopotentials (lmaxx) =  3
     Presently stress not available with electric field

     IMPORTANT: XC functional enforced from input :
     Exchange-correlation      = BEEF-VDW ( 1  4 27 13 2)
     Any further DFT definition will be discarded
     Please, verify this is what you really want

     Subspace diagonalization in iterative solution of the eigenvalue problem:
     a serial algorithm will be used

     bravais-lattice index     =            0
     lattice parameter (alat)  =       1.8897  a.u.
     unit-cell volume          =    6116.8020 (a.u.)^3
     number of atoms/cell      =           13
     number of atomic types    =            2
     number of electrons       =       133.00
     number of Kohn-Sham states=           76
     kinetic-energy cutoff     =      36.7493  Ry
     charge density cutoff     =     367.4932  Ry
     convergence threshold     =      1.0E-05
     mixing beta               =       0.3000
     number of iterations used =           10  plain     mixing
     Exchange-correlation      = BEEF-VDW ( 1  4 27 13 2)
     nstep                     =           50

     celldm(1)=   1.889726  celldm(2)=   0.000000  celldm(3)=   0.000000
     celldm(4)=   0.000000  celldm(5)=   0.000000  celldm(6)=   0.000000

     crystal axes: (cart. coord. in units of alat)
               a(1) = (   6.437465   0.000000   0.000000 )
               a(2) = (   3.218732   5.575008   0.000000 )
               a(3) = (   0.000000   0.000000  25.256168 )

     reciprocal axes: (cart. coord. in units 2 pi/alat)
               b(1) = (  0.155341 -0.089686  0.000000 )
               b(2) = (  0.000000  0.179372  0.000000 )
               b(3) = (  0.000000  0.000000  0.039594 )

     PseudoPot. # 1 for Sc read from file:
     /u/if/mamunm/psp/gbrv1.5pbe/Sc.UPF
     MD5 check sum: db30a2753ba66ef00f23801d899b7e7f
     Pseudo is Ultrasoft + core correction, Zval = 11.0
     Generated by new atomic code, or converted to UPF format
     Using radial grid of  849 points,  6 beta functions with:
                l(1) =   0
                l(2) =   0
                l(3) =   1
                l(4) =   1
                l(5) =   2
                l(6) =   2
     Q(r) pseudized with  6 coefficients,  rinner =    1.200   1.200   1.200
                                                       1.200   1.200

     PseudoPot. # 2 for H  read from file:
     /u/if/mamunm/psp/gbrv1.5pbe/H.UPF
     MD5 check sum: 761ae9a214b05c3daf00ab9f6b793d6f
     Pseudo is Ultrasoft, Zval =  1.0
     Generated by new atomic code, or converted to UPF format
     Using radial grid of  615 points,  2 beta functions with:
                l(1) =   0
                l(2) =   0
     Q(r) pseudized with  8 coefficients,  rinner =    0.700

     vdW kernel table read from file vdW_kernel_table
     MD5 check sum: 095c7af220d748ca6e76c0b4c6cfb241

     atomic species   valence    mass     pseudopotential
        Sc1           11.00    44.95591     Sc( 1.00)
        H1             1.00     1.00800     H ( 1.00)

     No symmetry found

   Cartesian axes

     site n.     atom                  positions (alat units)
         1           Sc1 tau(   1) = (   1.6093662   0.9291680  10.0000000  )
         2           Sc1 tau(   2) = (   4.8280986   0.9291680  10.0000000  )
         3           Sc1 tau(   3) = (   3.2187324   3.7166720  10.0000000  )
         4           Sc1 tau(   4) = (   6.4374648   3.7166720  10.0000000  )
         5           Sc1 tau(   5) = (   6.4374648   1.8583360  12.6280840  )
         6           Sc1 tau(   6) = (   3.2187324   1.8583360  12.6280840  )
         7           Sc1 tau(   7) = (   8.0468310   4.6458400  12.6280840  )
         8           Sc1 tau(   8) = (   4.8280986   4.6458400  12.6280840  )
         9           Sc1 tau(   9) = (   0.0000000   0.0000000  15.2561680  )
        10           Sc1 tau(  10) = (   3.2187324   0.0000000  15.2561680  )
        11           Sc1 tau(  11) = (   1.6093662   2.7875040  15.2561680  )
        12           Sc1 tau(  12) = (   4.8280986   2.7875040  15.2561680  )
        13           H1  tau(  13) = (   3.2187324   1.8583360  16.5626680  )

     number of k points=    20  Fermi-Dirac smearing, width (Ry)=  0.0110
                       cart. coord. in units 2pi/alat
        k(    1) = (   0.0000000   0.0000000   0.0000000), wk =   0.0555556
        k(    2) = (   0.0000000   0.0298953   0.0000000), wk =   0.1111111
        k(    3) = (   0.0000000   0.0597906   0.0000000), wk =   0.1111111
        k(    4) = (   0.0000000  -0.0896860   0.0000000), wk =   0.0555556
        k(    5) = (   0.0258901  -0.0149477   0.0000000), wk =   0.1111111
        k(    6) = (   0.0258901   0.0149477   0.0000000), wk =   0.1111111
        k(    7) = (   0.0258901   0.0448430   0.0000000), wk =   0.1111111
        k(    8) = (   0.0258901  -0.1046336   0.0000000), wk =   0.1111111
        k(    9) = (   0.0258901  -0.0747383   0.0000000), wk =   0.1111111
        k(   10) = (   0.0258901  -0.0448430   0.0000000), wk =   0.1111111
        k(   11) = (   0.0517802  -0.0298953   0.0000000), wk =   0.1111111
        k(   12) = (   0.0517802   0.0000000   0.0000000), wk =   0.1111111
        k(   13) = (   0.0517802   0.0298953   0.0000000), wk =   0.1111111
        k(   14) = (   0.0517802  -0.1195813   0.0000000), wk =   0.1111111
        k(   15) = (   0.0517802  -0.0896860   0.0000000), wk =   0.1111111
        k(   16) = (   0.0517802  -0.0597906   0.0000000), wk =   0.1111111
        k(   17) = (  -0.0776703   0.0448430   0.0000000), wk =   0.0555556
        k(   18) = (  -0.0776703   0.0747383   0.0000000), wk =   0.1111111
        k(   19) = (  -0.0776703   0.1046336   0.0000000), wk =   0.1111111
        k(   20) = (  -0.0776703  -0.0448430   0.0000000), wk =   0.0555556

     Largest allocated arrays     est. size (Mb)     dimensions
     Largest temporary arrays     est. size (Mb)     dimensions

     Initial potential from superposition of free atoms
     Check: negative starting charge=   -0.000294

     starting charge  132.97116, renormalised to  133.00000

     negative rho (up, down):  2.937E-04 0.000E+00

     *
     * You are using vdW-DF for exchange-correlation in this calculation.
     * Please cite the following three references that made this development
     * possible:
     *
     *   M. Dion, H. Rydberg, E. Schroder, D. C. Langreth, and
     *   B. I. Lundqvist, Phys. Rev. Lett. 92, 246401 (2004).
     *
     *   T. Thonhauser, V. R. Cooper, S. Li, A. Puzder, P. Hyldgaard, and
     *   D. C. Langreth, Phys. Rev. B 76, 125112 (2007).
     *
     *   G. Roman-Perez and J. M. Soler, Phys. Rev. Lett. 103, 096102 (2009).
     *
     *
     * If you are using vdW-DF2, please also cite:
     *
     *   K. Lee, E. D. Murray, L. Kong, B. I. Lundqvist, and
     *   D. C. Langreth, Phys. Rev. B 82, 081101(R) (2010).
     *
     *
     * If you are calculating the stress with vdW-DF, please also cite:
     *
     *   R. Sabatini, E. Kucukbenli, B. Kolb, T. Thonhauser, and
     *   S. de Gironcoli, J. Phys.: Condens. Matter 24, 424209 (2012).
     *

     Carrying out vdW-DF run using the following parameters:

     Nqs =      20    Nr_points =    1024   r_max =   100.000
     q_mesh =
               0.00001000     0.04494208     0.09755937     0.15916263
               0.23128650     0.31572767     0.41458969     0.53033537
               0.66584808     0.82450364     1.01025438     1.22772762
               1.48234092     1.78043706     2.12944203     2.53805004
               3.01644009     3.57652955     4.23227104     5.00000000

     Gradients computed in reciprocal space

     Adding external electric field

     Computed dipole along edir(3) :
        Dipole               -0.0015 Ry au,         -0.0039 Debye
        Dipole field         -0.0000 Ry au

        Potential amp.        0.0003 Ry
        Total length         46.5341 bohr

     Starting wfc are  157 randomized atomic wfcs

     Self-consistent Calculation

     iteration #  1     ecut=    36.75 Ry     beta=0.30
     Davidson diagonalization with overlap
     ethr =  1.00E-02,  avg # of iterations =  2.0

[...]

     total energy              =   -1136.35079452 Ry
     Harris-Foulkes estimate   =   -1139.39887916 Ry
     estimated scf accuracy    <       6.42687693 Ry

[...]

     End of self-consistent calculation

          k = 0.0000 0.0000 0.0000 ( 23031 PWs)   bands (ev):

   -49.5119 -49.4733 -49.4305 -49.4294 -49.4257 -49.4252 -49.4002 -49.3999
   -49.0174 -48.9774 -48.9754 -48.9587 -28.2034 -28.2023 -28.2022 -28.1848
   -28.1837 -28.1835 -28.1546 -28.1478 -28.1030 -28.0973 -28.0969 -28.0852
   -28.0612 -28.0609 -27.9297 -27.9297 -27.9264 -27.9262 -27.9243 -27.9070
   -27.8474 -27.8473 -27.8256 -27.8255 -27.7412 -27.7366 -27.7356 -27.5802
   -27.5609 -27.5590 -27.5358 -27.5055 -27.4967 -27.4956 -27.4225 -27.4224
    -4.4997  -3.7738  -2.6125  -1.6140  -1.0131  -1.0130  -1.0123  -0.9137
    -0.9135  -0.8181  -0.6503  -0.6503  -0.3769  -0.0902  -0.0820  -0.0818
     0.1802   0.1803   0.2233   0.5679   0.7431   0.9808   1.0776   1.0776
     1.1045   1.1308   1.1309   1.6402

[...]

          k =-0.0777 0.0448 0.0000 ( 23032 PWs)   bands (ev):

[...]

     the Fermi energy is     0.4762 ev

!    total energy              =   -1138.87160113 Ry
     Harris-Foulkes estimate   =   -1138.87161142 Ry
     estimated scf accuracy    <       0.00000809 Ry

     The total energy is the sum of the following terms:

     one-electron contribution =   -7167.72090428 Ry
     hartree contribution      =    3566.19966632 Ry
     xc contribution           =    -167.11842374 Ry
     ewald contribution        =    2629.90363860 Ry
     electric field correction =       0.00000001 Ry
     smearing contrib. (-TS)   =      -0.13557803 Ry

     convergence has been achieved in  18 iterations

 BEEF-vdW xc energy contributions
           1 :   -141.636830113301
           2 :    124.640004558517
           3 :   -98.1623643046385
           4 :    72.4874606121396
           5 :   -54.8427528708324
           6 :    46.4443822951200
           7 :   -43.7452080953473
           8 :    42.1327867071103
           9 :   -39.0902537645845
          10 :    34.9290570485215
          11 :   -31.3349184480517
          12 :    29.3943889326539
          13 :   -28.7033582462959
          14 :    27.9754881940495
          15 :   -26.3245152415647
          16 :    23.9991195685674
          17 :   -22.0051639518113
          18 :    21.0910427167832
          19 :   -21.0779109164617
          20 :    21.0934061149521
          21 :   -20.3991870614855
          22 :    19.0115890444239
          23 :   -17.5942868622000
          24 :    16.8002537645164
          25 :   -16.6994056088332
          26 :    16.7800188878792
          27 :   -16.4613436459468
          28 :    15.6141423914114
          29 :   -14.6282089555193
          30 :    14.0088485454173
          31 :   -16.6963578119809
          32 :   -11.9652095333918

     Forces acting on atoms (Ry/au):

     negative rho (up, down):  9.655E-05 0.000E+00
     atom    1 type  1   force =    -0.00014373   -0.00008721    0.00202930
     atom    2 type  1   force =     0.00014492    0.00003889    0.00197286
     atom    3 type  1   force =     0.00011021    0.00010948    0.00196890
     atom    4 type  1   force =    -0.00010387   -0.00005858    0.00184071
     atom    5 type  1   force =     0.00000466   -0.00062349    0.00154138
     atom    6 type  1   force =    -0.00000993   -0.00003198   -0.00684310
     atom    7 type  1   force =     0.00052315    0.00032220    0.00155013
     atom    8 type  1   force =    -0.00051590    0.00033377    0.00155733
     atom    9 type  1   force =     0.00012102    0.00007433   -0.00924505
     atom   10 type  1   force =    -0.00011954    0.02097566    0.00903591
     atom   11 type  1   force =     0.01809211   -0.01059532    0.00901419
     atom   12 type  1   force =    -0.01809963   -0.01045863    0.00890271
     atom   13 type  2   force =    -0.00000347    0.00000088   -0.02332526

     Total force =     0.046779     Total SCF correction =     0.001765

     entering subroutine stress ...

     negative rho (up, down):  9.655E-05 0.000E+00
          total   stress  (Ry/bohr**3)                   (kbar)     P=    0.17
   0.00001183  -0.00000000  -0.00000000          1.74     -0.00     -0.00
  -0.00000000   0.00001184  -0.00000000         -0.00      1.74     -0.00
  -0.00000000  -0.00000000  -0.00002016         -0.00     -0.00     -2.97

     BFGS Geometry Optimization

     number of scf cycles    =   1
     number of bfgs steps    =   0

     energy   new            =   -1138.8716011320 Ry

     new trust radius        =       0.0233252618 bohr
     new conv_thr            =       0.0000099958 Ry

ATOMIC_POSITIONS (crystal)
Sc1      0.166666667   0.166666667   0.395942884    0   0   0
Sc1      0.666666667   0.166666667   0.395942884    0   0   0
Sc1      0.166666667   0.666666667   0.395942884    0   0   0
Sc1      0.666666667   0.666666667   0.395942884    0   0   0
Sc1      0.833333333   0.333333333   0.500000000    0   0   0
Sc1      0.333333333   0.333333333   0.500000000    0   0   0
Sc1      0.833333333   0.833333333   0.500000000    0   0   0
Sc1      0.333333333   0.833333333   0.500000000    0   0   0
Sc1      0.000006421   0.000007055   0.603863410
Sc1      0.498994673   0.001991000   0.604246440
Sc1      0.001990072   0.498994297   0.604245984
Sc1      0.499008525   0.499007272   0.604243649
H1       0.333333007   0.333333416   0.655298333

     Writing output data file calc.save
     Check: negative starting charge=   -0.000294
     NEW-OLD atomic charge density approx. for the potential
     Check: negative starting charge=   -0.000293

[...]

     Total force =     0.041777     Total SCF correction =     0.006328
     SCF correction compared to forces is large: reduce conv_thr to get better values

[...]

     energy   old            =   -1138.8716011320 Ry
     energy   new            =   -1138.8736627876 Ry

     CASE: energy  _new < energy  _old

     WARNING: bfgs curvature condition failed, Theta= 0.897
     new trust radius        =       0.0256577880 bohr
     new conv_thr            =       0.0000001000 Ry

[...]

     Threshold (ethr) on eigenvalues was too large:
     Diagonalizing with lowered threshold

     Davidson diagonalization with overlap
     ethr =  4.60E-08,  avg # of iterations =  4.5

[...]

     WARNING: bfgs curvature condition failed, Theta= 0.886
     new trust radius        =       0.0068492481 bohr
     new conv_thr            =       0.0000001000 Ry

[...]

     Threshold (ethr) on eigenvalues was too large:
     Diagonalizing with lowered threshold

     Davidson diagonalization with overlap
     ethr =  9.05E-08,  avg # of iterations =  6.8

[...]

     Total force =     0.003935     Total SCF correction =     0.000209

[...]

     number of scf cycles    =  11
     number of bfgs steps    =  10

     energy   old            =   -1138.8814216821 Ry
     energy   new            =   -1138.8815865474 Ry

     CASE: energy  _new < energy  _old

     new trust radius        =       0.0346743186 bohr
     new conv_thr            =       0.0000001000 Ry

ATOMIC_POSITIONS (crystal)
Sc1      0.166666667   0.166666667   0.395942884    0   0   0
Sc1      0.666666667   0.166666667   0.395942884    0   0   0
Sc1      0.166666667   0.666666667   0.395942884    0   0   0
Sc1      0.666666667   0.666666667   0.395942884    0   0   0
Sc1      0.833333333   0.333333333   0.500000000    0   0   0
Sc1      0.333333333   0.333333333   0.500000000    0   0   0
Sc1      0.833333333   0.833333333   0.500000000    0   0   0
Sc1      0.333333333   0.833333333   0.500000000    0   0   0
Sc1     -0.000003888   0.000000986   0.600158819
Sc1      0.494242777   0.011513254   0.605945171
Sc1      0.011516406   0.494238076   0.605942732
Sc1      0.494241516   0.494235518   0.605938750
H1       0.333337764   0.333340732   0.649250881

     Writing output data file calc.save
     Check: negative starting charge=   -0.000283
     NEW-OLD atomic charge density approx. for the potential
     Check: negative starting charge=   -0.000282

[...]

     Self-consistent Calculation

[...]

     total energy              =   -1138.88171228 Ry
     Harris-Foulkes estimate   =   -1138.88171229 Ry
     estimated scf accuracy    <       0.00000014 Ry

     iteration # 13     ecut=    36.75 Ry     beta=0.30
     Davidson diagonalization with overlap
     ethr =  1.03E-10,  avg # of iterations =  6.6

[...]

     negative rho (up, down):  9.699E-05 0.000E+00

     Adding external electric field

     Computed dipole along edir(3) :
        Dipole                0.0206 Ry au,          0.0523 Debye
        Dipole field          0.0000 Ry au

        Potential amp.       -0.0039 Ry
        Total length         46.5341 bohr

     End of self-consistent calculation

[...]

          k = 0.0518-0.0598 0.0000 ( 23012 PWs)   bands (ev):

[...]

          k =-0.0777-0.0448 0.0000 ( 23032 PWs)   bands (ev):

   -49.4142 -49.4109 -49.3961 -49.3904 -49.3879 -49.3833 -49.3664 -49.3624
   -48.9722 -48.9647 -48.9499 -48.9273 -28.0952 -28.0914 -28.0867 -28.0862
   -28.0767 -28.0665 -28.0627 -28.0566 -28.0530 -28.0481 -28.0388 -28.0323
   -27.9878 -27.9813 -27.9798 -27.9559 -27.9532 -27.9451 -27.9347 -27.8909
   -27.8496 -27.8484 -27.8325 -27.8026 -27.6514 -27.6499 -27.5632 -27.5509
   -27.5435 -27.5426 -27.5384 -27.5319 -27.5231 -27.4915 -27.4338 -27.4289
    -4.2509  -2.9237  -2.7760  -1.9547  -1.6372  -1.0031  -0.9981  -0.7557
    -0.5339  -0.4741  -0.3941   0.2472   0.2555   0.2693   0.2729   0.3220
     0.4189   0.5044   0.5380   0.6025   0.6181   0.6530   0.6919   0.7335
     0.8824   0.9438   0.9973   1.0176

     the Fermi energy is     0.5125 ev

!    total energy              =   -1138.88171223 Ry
     Harris-Foulkes estimate   =   -1138.88171229 Ry
     estimated scf accuracy    <       0.00000008 Ry

     The total energy is the sum of the following terms:

     one-electron contribution =   -7163.38867377 Ry
     hartree contribution      =    3564.20212790 Ry
     xc contribution           =    -167.15690102 Ry
     ewald contribution        =    2627.59812500 Ry
     electric field correction =       0.00000087 Ry
     smearing contrib. (-TS)   =      -0.13639120 Ry

     convergence has been achieved in  13 iterations

 BEEF-vdW xc energy contributions
           1 :   -141.676015595075
           2 :    124.687786695083
           3 :   -98.2135796018697
           4 :    72.5254268760336
           5 :   -54.8520562206397
           6 :    46.4221191607171
           7 :   -43.7020195347635
           8 :    42.0833715842266
           9 :   -39.0437255755510
          10 :    34.8880075309426
          11 :   -31.3000626782134
          12 :    29.3668743714352
          13 :   -28.6835726956401
          14 :    27.9625041523965
          15 :   -26.3167152333559
          16 :    23.9928197665459
          17 :   -21.9923373665134
          18 :    21.0620549832790
          19 :   -21.0292726910452
          20 :    21.0319525363964
          21 :   -20.3370663366960
          22 :    18.9569384749535
          23 :   -17.5465148252849
          24 :    16.7529717482078
          25 :   -16.6472072445304
          26 :    16.7244283136618
          27 :   -16.4119727056054
          28 :    15.5823231715044
          29 :   -14.6168265511230
          30 :    14.0084791524943
          31 :   -16.6990909538034
          32 :   -11.9694258652249

     Forces acting on atoms (Ry/au):

     negative rho (up, down):  9.699E-05 0.000E+00
     atom    1 type  1   force =     0.00011458    0.00006503    0.00181807
     atom    2 type  1   force =    -0.00011520    0.00006315    0.00182891
     atom    3 type  1   force =    -0.00000175   -0.00013049    0.00182649
     atom    4 type  1   force =     0.00000158    0.00000212    0.00298504
     atom    5 type  1   force =    -0.00000458    0.00007044   -0.00020309
     atom    6 type  1   force =     0.00000314    0.00000071   -0.00305165
     atom    7 type  1   force =    -0.00005916   -0.00003396   -0.00019990
     atom    8 type  1   force =     0.00005845   -0.00003904   -0.00019992
     atom    9 type  1   force =     0.00000172   -0.00000452   -0.00086329
     atom   10 type  1   force =    -0.00000212    0.00002844   -0.00104443
     atom   11 type  1   force =     0.00002640   -0.00001304   -0.00103790
     atom   12 type  1   force =    -0.00001833   -0.00000603   -0.00103166
     atom   13 type  2   force =    -0.00000475   -0.00000283   -0.00082668

     Total force =     0.002159     Total SCF correction =     0.000344
     SCF correction compared to forces is large: reduce conv_thr to get better values

     entering subroutine stress ...

     negative rho (up, down):  9.699E-05 0.000E+00
          total   stress  (Ry/bohr**3)                   (kbar)     P=    0.87
   0.00001619   0.00000000  -0.00000000          2.38      0.00     -0.00
   0.00000000   0.00001618   0.00000000          0.00      2.38      0.00
  -0.00000000   0.00000000  -0.00001453         -0.00      0.00     -2.14

     bfgs converged in  12 scf cycles and  11 bfgs steps
     (criteria: energy <  1.0E+00, force <  1.9E-03)

     End of BFGS Geometry Optimization

     Final energy   =   -1138.8817122307 Ry
Begin final coordinates

ATOMIC_POSITIONS (crystal)
Sc1      0.166666667   0.166666667   0.395942884    0   0   0
Sc1      0.666666667   0.166666667   0.395942884    0   0   0
Sc1      0.166666667   0.666666667   0.395942884    0   0   0
Sc1      0.666666667   0.666666667   0.395942884    0   0   0
Sc1      0.833333333   0.333333333   0.500000000    0   0   0
Sc1      0.333333333   0.333333333   0.500000000    0   0   0
Sc1      0.833333333   0.833333333   0.500000000    0   0   0
Sc1      0.333333333   0.833333333   0.500000000    0   0   0
Sc1     -0.000003888   0.000000986   0.600158819
Sc1      0.494242777   0.011513254   0.605945171
Sc1      0.011516406   0.494238076   0.605942732
Sc1      0.494241516   0.494235518   0.605938750
H1       0.333337764   0.333340732   0.649250881
End final coordinates

     Writing output data file calc.save

     General routines

     Parallel routines

   This run was terminated on:  16:29: 9   2May2018

   JOB DONE.
Job  /afs/slac/g/suncat/bin/suncat-tsmpirun -x LD_LIBRARY_PATH -wdir /scratch/qe769867_y1PvT pw.x -npool 4 -in pw.inp

TID   HOST_NAME   COMMAND_LINE            STATUS            TERMINATION_TIME
00000 suncat0151 pw.x -npool 4 -i  Done                     05/02/2018 16:29:09
00001 suncat0151 pw.x -npool 4 -i  Done                     05/02/2018 16:29:09
00002 suncat0151 pw.x -npool 4 -i  Done                     05/02/2018 16:29:09
00003 suncat0151 pw.x -npool 4 -i  Done                     05/02/2018 16:29:09
00004 suncat0151 pw.x -npool 4 -i  Done                     05/02/2018 16:29:09
00005 suncat0151 pw.x -npool 4 -i  Done                     05/02/2018 16:29:09
00006 suncat0151 pw.x -npool 4 -i  Done                     05/02/2018 16:29:09
00007 suncat0151 pw.x -npool 4 -i  Done                     05/02/2018 16:29:09
00008 suncat0279 pw.x -npool 4 -i  Done                     05/02/2018 16:29:09
00009 suncat0279 pw.x -npool 4 -i  Done                     05/02/2018 16:29:09
00010 suncat0279 pw.x -npool 4 -i  Done                     05/02/2018 16:29:09
00011 suncat0279 pw.x -npool 4 -i  Done                     05/02/2018 16:29:09
00012 suncat0279 pw.x -npool 4 -i  Done                     05/02/2018 16:29:09
00013 suncat0279 pw.x -npool 4 -i  Done                     05/02/2018 16:29:09
00014 suncat0279 pw.x -npool 4 -i  Done                     05/02/2018 16:29:09
00015 suncat0279 pw.x -npool 4 -i  Done                     05/02/2018 16:29:09
00016 suncat0210 pw.x -npool 4 -i  Done                     05/02/2018 16:29:09
00017 suncat0210 pw.x -npool 4 -i  Done                     05/02/2018 16:29:09
00018 suncat0210 pw.x -npool 4 -i  Done                     05/02/2018 16:29:09
00019 suncat0210 pw.x -npool 4 -i  Done                     05/02/2018 16:29:09
00020 suncat0210 pw.x -npool 4 -i  Done                     05/02/2018 16:29:09
00021 suncat0210 pw.x -npool 4 -i  Done                     05/02/2018 16:29:09
00022 suncat0210 pw.x -npool 4 -i  Done                     05/02/2018 16:29:09
00023 suncat0210 pw.x -npool 4 -i  Done                     05/02/2018 16:29:09
00024 suncat0205 pw.x -npool 4 -i  Done                     05/02/2018 16:29:09
00025 suncat0205 pw.x -npool 4 -i  Done                     05/02/2018 16:29:09
00026 suncat0205 pw.x -npool 4 -i  Done                     05/02/2018 16:29:09
00027 suncat0205 pw.x -npool 4 -i  Done                     05/02/2018 16:29:09
00028 suncat0205 pw.x -npool 4 -i  Done                     05/02/2018 16:29:09
00029 suncat0205 pw.x -npool 4 -i  Done                     05/02/2018 16:29:09
00030 suncat0205 pw.x -npool 4 -i  Done                     05/02/2018 16:29:09
00031 suncat0205 pw.x -npool 4 -i  Done                     05/02/2018 16:29:09