     Program PWSCF v.5.1rc2 (svn rev. 11289) starts on 17Jan2019 at  1:25: 2

     Current dimensions of program PWSCF are:
     Max number of different atomic species (ntypx) = 10
     Max number of k-points (npk) =  40000
     Max angular momentum in pseudopotentials (lmaxx) =  3

     IMPORTANT: XC functional enforced from input :
     Exchange-correlation      = BEEF-VDW ( 1  4 27 13 2)
     Any further DFT definition will be discarded
     Please, verify this is what you really want

     Subspace diagonalization in iterative solution of the eigenvalue problem:
     a serial algorithm will be used

     bravais-lattice index     =            0
     lattice parameter (alat)  =      12.7122  a.u.
     unit-cell volume          =    6741.9071 (a.u.)^3
     number of atoms/cell      =           13
     number of atomic types    =            2
     number of electrons       =       174.00
     number of Kohn-Sham states=           97
     kinetic-energy cutoff     =      36.7493  Ry
     charge density cutoff     =     367.4933  Ry
     convergence threshold     =      1.0E-04
     mixing beta               =       0.2000
     number of iterations used =            8  plain     mixing
     Exchange-correlation      = BEEF-VDW ( 1  4 27 13 2)
     nstep                     =           50

     celldm(1)=  12.712175  celldm(2)=   0.000000  celldm(3)=   0.000000
     celldm(4)=   0.000000  celldm(5)=   0.000000  celldm(6)=   0.000000

     crystal axes: (cart. coord. in units of alat)
               a(1) = (   1.000000   0.000000   0.000000 )
               a(2) = (   0.500000   0.866025   0.000000 )
               a(3) = (   0.000000   0.000000   3.789593 )

     reciprocal axes: (cart. coord. in units 2 pi/alat)
               b(1) = (  1.000000 -0.577350  0.000000 )
               b(2) = (  0.000000  1.154701  0.000000 )
               b(3) = (  0.000000  0.000000  0.263881 )

     PseudoPot. # 1 for Sn read from file:
     /nfs/slac/g/suncatfs/mamunm/src/decaf-espresso/gbrv15pbe/Sn.UPF
     MD5 check sum: 469debedee59599fedebd795477fea03
     Pseudo is Ultrasoft + core correction, Zval = 14.0
     Generated by new atomic code, or converted to UPF format
     Using radial grid of  891 points,  6 beta functions with:
                l(1) =   0
                l(2) =   0
                l(3) =   1
                l(4) =   1
                l(5) =   2
                l(6) =   2
     Q(r) pseudized with  8 coefficients,  rinner =    1.350   1.350   1.350
                                                       1.350   1.350

     PseudoPot. # 2 for S  read from file:
     /nfs/slac/g/suncatfs/mamunm/src/decaf-espresso/gbrv15pbe/S.UPF
     MD5 check sum: 88d86576ff6df21479756cfb9bdac1df
     Pseudo is Ultrasoft + core correction, Zval =  6.0
     Generated by new atomic code, or converted to UPF format
     Using radial grid of  907 points,  6 beta functions with:
                l(1) =   0
                l(2) =   0
                l(3) =   1
                l(4) =   1
                l(5) =   2
                l(6) =   2
     Q(r) pseudized with  8 coefficients,  rinner =    1.300   1.300   1.300
                                                       1.300   1.300

     vdW kernel table read from file vdW_kernel_table
     MD5 check sum: 095c7af220d748ca6e76c0b4c6cfb241

     atomic species   valence    mass     pseudopotential
        Sn            14.00   118.71000     Sn( 1.00)
        S              6.00    32.06000     S ( 1.00)

     No symmetry found

   Cartesian axes

     site n.     atom                  positions (alat units)
         1           Sn  tau(   1) = (   0.2500000   0.1443376   1.4865483  )
         2           Sn  tau(   2) = (   0.7500000   0.1443376   1.4865483  )
         3           Sn  tau(   3) = (   0.5000000   0.5773503   1.4865483  )
         4           Sn  tau(   4) = (   1.0000000   0.5773503   1.4865483  )
         5           Sn  tau(   5) = (   1.0000000   0.2886751   1.8947966  )
         6           Sn  tau(   6) = (   0.5000000   0.2886751   1.8947966  )
         7           Sn  tau(   7) = (   1.2500000   0.7216878   1.8947966  )
         8           Sn  tau(   8) = (   0.7500000   0.7216878   1.8947966  )
         9           Sn  tau(   9) = (  -0.0000024   0.0000034   2.4262296  )
        10           Sn  tau(  10) = (   0.4999957  -0.0058133   2.2975401  )
        11           Sn  tau(  11) = (   0.2449661   0.4359211   2.2975349  )
        12           Sn  tau(  12) = (   0.7550334   0.4359248   2.2975429  )
        13           S   tau(  13) = (   0.0000022  -0.0000018   2.7680861  )

     number of k points=    20  Fermi-Dirac smearing, width (Ry)=  0.0110
                       cart. coord. in units 2pi/alat
        k(    1) = (   0.0000000   0.0000000   0.0000000), wk =   0.0555556
        k(    2) = (   0.0000000   0.1924501   0.0000000), wk =   0.1111111
        k(    3) = (   0.0000000   0.3849002   0.0000000), wk =   0.1111111
        k(    4) = (   0.0000000  -0.5773503   0.0000000), wk =   0.0555556
        k(    5) = (   0.1666667  -0.0962250   0.0000000), wk =   0.1111111
        k(    6) = (   0.1666667   0.0962250   0.0000000), wk =   0.1111111
        k(    7) = (   0.1666667   0.2886751   0.0000000), wk =   0.1111111
        k(    8) = (   0.1666667  -0.6735753   0.0000000), wk =   0.1111111
        k(    9) = (   0.1666667  -0.4811252   0.0000000), wk =   0.1111111
        k(   10) = (   0.1666667  -0.2886751   0.0000000), wk =   0.1111111
        k(   11) = (   0.3333333  -0.1924501   0.0000000), wk =   0.1111111
        k(   12) = (   0.3333333   0.0000000   0.0000000), wk =   0.1111111
        k(   13) = (   0.3333333   0.1924501   0.0000000), wk =   0.1111111
        k(   14) = (   0.3333333  -0.7698004   0.0000000), wk =   0.1111111
        k(   15) = (   0.3333333  -0.5773503   0.0000000), wk =   0.1111111
        k(   16) = (   0.3333333  -0.3849002   0.0000000), wk =   0.1111111
        k(   17) = (  -0.5000000   0.2886751   0.0000000), wk =   0.0555556
        k(   18) = (  -0.5000000   0.4811252   0.0000000), wk =   0.1111111
        k(   19) = (  -0.5000000   0.6735753   0.0000000), wk =   0.1111111
        k(   20) = (  -0.5000000  -0.2886751   0.0000000), wk =   0.0555556

     Largest allocated arrays     est. size (Mb)     dimensions
     Largest temporary arrays     est. size (Mb)     dimensions

     Initial potential from superposition of free atoms
     Check: negative starting charge=   -0.001212

     starting charge  161.99942, renormalised to  174.00000

     negative rho (up, down):  1.302E-03 0.000E+00

     *
     * You are using vdW-DF for exchange-correlation in this calculation.
     * Please cite the following three references that made this development
     * possible:
     *
     *   M. Dion, H. Rydberg, E. Schroder, D. C. Langreth, and
     *   B. I. Lundqvist, Phys. Rev. Lett. 92, 246401 (2004).
     *
     *   T. Thonhauser, V. R. Cooper, S. Li, A. Puzder, P. Hyldgaard, and
     *   D. C. Langreth, Phys. Rev. B 76, 125112 (2007).
     *
     *   G. Roman-Perez and J. M. Soler, Phys. Rev. Lett. 103, 096102 (2009).
     *
     *
     * If you are using vdW-DF2, please also cite:
     *
     *   K. Lee, E. D. Murray, L. Kong, B. I. Lundqvist, and
     *   D. C. Langreth, Phys. Rev. B 82, 081101(R) (2010).
     *
     *
     * If you are calculating the stress with vdW-DF, please also cite:
     *
     *   R. Sabatini, E. Kucukbenli, B. Kolb, T. Thonhauser, and
     *   S. de Gironcoli, J. Phys.: Condens. Matter 24, 424209 (2012).
     *

     Carrying out vdW-DF run using the following parameters:

     Nqs =      20    Nr_points =    1024   r_max =   100.000
     q_mesh =
               0.00001000     0.04494208     0.09755937     0.15916263
               0.23128650     0.31572767     0.41458969     0.53033537
               0.66584808     0.82450364     1.01025438     1.22772762
               1.48234092     1.78043706     2.12944203     2.53805004
               3.01644009     3.57652955     4.23227104     5.00000000

     Gradients computed in reciprocal space

     Adding external electric field

     Computed dipole along edir(3) :
        Dipole               -4.8836 Ry au,        -12.4128 Debye
        Dipole field         -0.0091 Ry au

        Potential amp.        0.7893 Ry
        Total length         43.3566 bohr

     Starting wfc are  112 randomized atomic wfcs

     Self-consistent Calculation

     iteration #  1     ecut=    36.75 Ry     beta=0.20
     Davidson diagonalization with overlap
     ethr =  1.00E-02,  avg # of iterations =  7.1

[...]

     total energy              =   -1899.36239860 Ry
     Harris-Foulkes estimate   =   -1959.04512701 Ry
     estimated scf accuracy    <     175.32404479 Ry

[...]

     End of self-consistent calculation

          k = 0.0000 0.0000 0.0000 ( 25377 PWs)   bands (ev):

   -22.0099 -22.0010 -22.0010 -21.9925 -21.9827 -21.9826 -21.9699 -21.9699
   -21.9629 -21.9483 -21.9471 -21.9471 -21.9405 -21.9334 -21.9334 -21.9223
   -21.9217 -21.9217 -21.9215 -21.9135 -21.9135 -21.9117 -21.9114 -21.9114
   -21.8900 -21.8900 -21.8900 -21.8851 -21.8806 -21.8806 -21.8716 -21.8715
   -21.8679 -21.8486 -21.8485 -21.8397 -21.8397 -21.8194 -21.8065 -21.8030
   -21.8030 -21.7916 -21.7915 -21.7882 -21.7882 -21.7850 -21.7785 -21.7784
   -21.7711 -21.7644 -21.7587 -21.7586 -21.7513 -21.7512 -21.7474 -21.5302
   -21.5302 -21.4550 -21.3904 -21.3903 -11.3588 -10.5575  -9.2528  -7.6515
    -6.5656  -6.5656  -6.5227  -6.1189  -6.1189  -5.7336  -5.3587  -5.1392
    -5.1391  -3.9093  -3.7016  -3.7016  -3.0842  -2.7548  -2.5908  -2.5907
    -2.4513  -2.4264  -2.4264  -1.3481  -0.6616  -0.6616  -0.1181   1.0619
     1.0619   1.0823   1.1602   1.1602   2.2216   2.6590   2.6747   2.7610
     2.7610

[...]

          k =-0.5000 0.2887 0.0000 ( 25386 PWs)   bands (ev):

[...]

     the Fermi energy is     0.1030 ev

!    total energy              =   -1952.71273004 Ry
     Harris-Foulkes estimate   =   -1952.71272040 Ry
     estimated scf accuracy    <       0.00006956 Ry

     The total energy is the sum of the following terms:

     one-electron contribution =  -10092.37958279 Ry
     hartree contribution      =    5108.50847764 Ry
     xc contribution           =    -542.47504144 Ry
     ewald contribution        =    3573.67435335 Ry
     electric field correction =       0.00156501 Ry
     smearing contrib. (-TS)   =      -0.04250180 Ry

     convergence has been achieved in  15 iterations

     Forces acting on atoms (Ry/au):

     negative rho (up, down):  3.568E-04 0.000E+00
     atom    1 type  1   force =    -0.00327262   -0.00195578    0.01087959
     atom    2 type  1   force =     0.00326242   -0.00188940    0.01084440
     atom    3 type  1   force =     0.00000042    0.00387391    0.01087742
     atom    4 type  1   force =     0.00001961    0.00004673    0.01757039
     atom    5 type  1   force =    -0.00000200   -0.00671488   -0.00314952
     atom    6 type  1   force =     0.00003335    0.00000573    0.00008055
     atom    7 type  1   force =     0.00578067    0.00332559   -0.00316052
     atom    8 type  1   force =    -0.00580278    0.00334430   -0.00309944
     atom    9 type  1   force =    -0.00001230    0.00000373    0.00079778
     atom   10 type  1   force =    -0.00000915    0.00199912   -0.01328209
     atom   11 type  1   force =     0.00174573   -0.00102677   -0.01325840
     atom   12 type  1   force =    -0.00173539   -0.00101351   -0.01321638
     atom   13 type  2   force =    -0.00000797    0.00000122   -0.00188379

     Total force =     0.023307     Total SCF correction =     0.022119
     SCF correction compared to forces is large: reduce conv_thr to get better values

     BFGS Geometry Optimization

     number of scf cycles    =   1
     number of bfgs steps    =   0

     energy   new            =   -1952.7127300383 Ry

     new trust radius        =       0.0134316938 bohr
     new conv_thr            =       0.0001000000 Ry

ATOMIC_POSITIONS (angstrom)
Sn       1.681748263   0.970957812  10.000000000    0   0   0
Sn       5.045244789   0.970957812  10.000000000    0   0   0
Sn       3.363496526   3.883831250  10.000000000    0   0   0
Sn       6.726993052   3.883831250  10.000000000    0   0   0
Sn       6.726993052   1.941915625  12.746283414    0   0   0
Sn       3.363496526   1.941915625  12.746283414    0   0   0
Sn       8.408741315   4.854789062  12.746283414    0   0   0
Sn       5.045244789   4.854789062  12.746283414    0   0   0
Sn      -0.000022515   0.000024819  16.321651940
Sn       3.363462668  -0.038048458  15.448507533
Sn       1.648808746   2.931895130  15.448485523
Sn       5.078185852   2.931926779  15.448561119
S        0.000010412  -0.000011283  18.619899014

     Writing output data file calc.save
     Check: negative starting charge=   -0.001212
     NEW-OLD atomic charge density approx. for the potential
     Check: negative starting charge=   -0.001213

[...]

     energy   old            =   -1952.7127300383 Ry
     energy   new            =   -1952.7128739841 Ry

     CASE: energy  _new < energy  _old

[...]

     Threshold (ethr) on eigenvalues was too large:
     Diagonalizing with lowered threshold

     Davidson diagonalization with overlap
     ethr =  6.10E-08,  avg # of iterations =  2.0

[...]

     WARNING: bfgs curvature condition failed, Theta= 0.855
     new trust radius        =       0.0066344958 bohr
     new conv_thr            =       0.0000010000 Ry

[...]

     Threshold (ethr) on eigenvalues was too large:
     Diagonalizing with lowered threshold

     Davidson diagonalization with overlap
     ethr =  3.40E-08,  avg # of iterations =  2.5

[...]

     number of scf cycles    =   9
     number of bfgs steps    =   8

     energy   old            =   -1952.7129883739 Ry
     energy   new            =   -1952.7129976040 Ry

     CASE: energy  _new < energy  _old

     new trust radius        =       0.0071803679 bohr
     new conv_thr            =       0.0000010000 Ry

ATOMIC_POSITIONS (angstrom)
Sn       1.681748263   0.970957812  10.000000000    0   0   0
Sn       5.045244789   0.970957812  10.000000000    0   0   0
Sn       3.363496526   3.883831250  10.000000000    0   0   0
Sn       6.726993052   3.883831250  10.000000000    0   0   0
Sn       6.726993052   1.941915625  12.746283413    0   0   0
Sn       3.363496526   1.941915625  12.746283413    0   0   0
Sn       8.408741315   4.854789062  12.746283413    0   0   0
Sn       5.045244789   4.854789062  12.746283413    0   0   0
Sn      -0.000016828   0.000011467  16.328189404
Sn       3.363485533  -0.026165349  15.446029260
Sn       1.659057961   2.925992550  15.445998551
Sn       5.067922503   2.925990381  15.446023933
S        0.000009757  -0.000002653  18.623331127

     Writing output data file calc.save
     Check: negative starting charge=   -0.001216
     NEW-OLD atomic charge density approx. for the potential
     Check: negative starting charge=   -0.001215

[...]

     Self-consistent Calculation

[...]

     total energy              =   -1952.71300023 Ry
     Harris-Foulkes estimate   =   -1952.71299967 Ry
     estimated scf accuracy    <       0.00000107 Ry

     iteration #  6     ecut=    36.75 Ry     beta=0.20
     Davidson diagonalization with overlap
     ethr =  6.12E-10,  avg # of iterations =  2.2

     negative rho (up, down):  3.614E-04 0.000E+00

     Adding external electric field

     Computed dipole along edir(3) :
        Dipole               -0.9209 Ry au,         -2.3407 Debye
        Dipole field         -0.0017 Ry au

        Potential amp.        0.1488 Ry
        Total length         43.3566 bohr

     End of self-consistent calculation

[...]

          k = 0.3333-0.3849 0.0000 ( 25368 PWs)   bands (ev):

[...]

          k =-0.5000-0.2887 0.0000 ( 25386 PWs)   bands (ev):

   -21.9996 -21.9860 -21.9744 -21.9719 -21.9656 -21.9631 -21.9597 -21.9560
   -21.9482 -21.9450 -21.9448 -21.9420 -21.9382 -21.9347 -21.9336 -21.9282
   -21.9226 -21.9159 -21.9154 -21.9132 -21.9101 -21.9038 -21.9019 -21.9015
   -21.8988 -21.8958 -21.8941 -21.8887 -21.8845 -21.8837 -21.8798 -21.8708
   -21.8705 -21.8677 -21.8637 -21.8522 -21.8508 -21.8447 -21.8377 -21.8371
   -21.8354 -21.8337 -21.8331 -21.8307 -21.8270 -21.8252 -21.8194 -21.8158
   -21.8096 -21.8085 -21.7995 -21.7922 -21.7907 -21.7757 -21.7666 -21.5441
   -21.5424 -21.4654 -21.3975 -21.3963 -11.3592  -9.5456  -9.3477  -8.3022
    -8.0373  -7.2571  -7.1008  -6.6393  -6.5848  -6.1516  -5.9509  -5.0321
    -4.8701  -2.5802  -2.3055  -2.1381  -2.0488  -1.7599  -1.6921  -1.5271
    -1.2079  -1.0309  -0.7068  -0.6812  -0.5148  -0.2439   0.1568   0.3351
     0.5210   0.6085   0.8540   1.1480   1.1960   1.3548   1.3612   1.4169
     1.6013

     the Fermi energy is     0.0962 ev

!    total energy              =   -1952.71300044 Ry
     Harris-Foulkes estimate   =   -1952.71300271 Ry
     estimated scf accuracy    <       0.00000041 Ry

     The total energy is the sum of the following terms:

     one-electron contribution =  -10098.79230752 Ry
     hartree contribution      =    5111.98932674 Ry
     xc contribution           =    -542.49109396 Ry
     ewald contribution        =    3576.62180027 Ry
     electric field correction =       0.00158071 Ry
     smearing contrib. (-TS)   =      -0.04230668 Ry

     convergence has been achieved in   6 iterations

     Forces acting on atoms (Ry/au):

     negative rho (up, down):  3.614E-04 0.000E+00
     atom    1 type  1   force =    -0.00392894   -0.00226821    0.00156077
     atom    2 type  1   force =     0.00392884   -0.00226786    0.00156033
     atom    3 type  1   force =    -0.00000007    0.00453656    0.00156065
     atom    4 type  1   force =     0.00000005   -0.00000010    0.00788543
     atom    5 type  1   force =    -0.00000021   -0.00632925   -0.00222364
     atom    6 type  1   force =     0.00000035   -0.00000113    0.00028973
     atom    7 type  1   force =     0.00548113    0.00316559   -0.00222409
     atom    8 type  1   force =    -0.00548097    0.00316559   -0.00222320
     atom    9 type  1   force =     0.00000041   -0.00000021   -0.00157738
     atom   10 type  1   force =    -0.00000024    0.00008716   -0.00177479
     atom   11 type  1   force =     0.00007420   -0.00004423   -0.00177287
     atom   12 type  1   force =    -0.00007442   -0.00004397   -0.00177345
     atom   13 type  2   force =    -0.00000014    0.00000006    0.00071254

     Total force =     0.003529     Total SCF correction =     0.001351
     SCF correction compared to forces is large: reduce conv_thr to get better values

     bfgs converged in  10 scf cycles and   9 bfgs steps
     (criteria: energy <  1.0E+12, force <  1.9E-03)

     End of BFGS Geometry Optimization

     Final energy   =   -1952.7130004359 Ry
Begin final coordinates

ATOMIC_POSITIONS (angstrom)
Sn       1.681748263   0.970957812  10.000000000    0   0   0
Sn       5.045244789   0.970957812  10.000000000    0   0   0
Sn       3.363496526   3.883831250  10.000000000    0   0   0
Sn       6.726993052   3.883831250  10.000000000    0   0   0
Sn       6.726993052   1.941915625  12.746283413    0   0   0
Sn       3.363496526   1.941915625  12.746283413    0   0   0
Sn       8.408741315   4.854789062  12.746283413    0   0   0
Sn       5.045244789   4.854789062  12.746283413    0   0   0
Sn      -0.000016828   0.000011467  16.328189404
Sn       3.363485533  -0.026165349  15.446029260
Sn       1.659057961   2.925992550  15.445998551
Sn       5.067922503   2.925990381  15.446023933
S        0.000009757  -0.000002653  18.623331127
End final coordinates

     Writing output data file calc.save

     General routines

     Parallel routines

   This run was terminated on:   2: 8:13  17Jan2019

   JOB DONE.
Job  /afs/slac/g/suncat/bin/suncat-tsmpirun -x LD_LIBRARY_PATH -wdir /tmp/qe_379311h1nch6vu_scratch pw.x -npool 3 -in pw.pwi

TID   HOST_NAME   COMMAND_LINE            STATUS            TERMINATION_TIME
00000 suncat1043 pw.x -npool 3 -i  Done                     01/17/2019 02:08:13
00001 suncat1043 pw.x -npool 3 -i  Done                     01/17/2019 02:08:13
00002 suncat1043 pw.x -npool 3 -i  Done                     01/17/2019 02:08:13
00003 suncat1043 pw.x -npool 3 -i  Done                     01/17/2019 02:08:13
00004 suncat1043 pw.x -npool 3 -i  Done                     01/17/2019 02:08:13
00005 suncat1043 pw.x -npool 3 -i  Done                     01/17/2019 02:08:13
00006 suncat1043 pw.x -npool 3 -i  Done                     01/17/2019 02:08:13
00007 suncat1043 pw.x -npool 3 -i  Done                     01/17/2019 02:08:13
00008 suncat1043 pw.x -npool 3 -i  Done                     01/17/2019 02:08:13
00009 suncat1043 pw.x -npool 3 -i  Done                     01/17/2019 02:08:13
00010 suncat1043 pw.x -npool 3 -i  Done                     01/17/2019 02:08:13
00011 suncat1043 pw.x -npool 3 -i  Done                     01/17/2019 02:08:13
00012 suncat1042 pw.x -npool 3 -i  Done                     01/17/2019 02:08:13
00013 suncat1042 pw.x -npool 3 -i  Done                     01/17/2019 02:08:13
00014 suncat1042 pw.x -npool 3 -i  Done                     01/17/2019 02:08:13
00015 suncat1042 pw.x -npool 3 -i  Done                     01/17/2019 02:08:13
00016 suncat1042 pw.x -npool 3 -i  Done                     01/17/2019 02:08:13
00017 suncat1042 pw.x -npool 3 -i  Done                     01/17/2019 02:08:13
00018 suncat1042 pw.x -npool 3 -i  Done                     01/17/2019 02:08:13
00019 suncat1042 pw.x -npool 3 -i  Done                     01/17/2019 02:08:13
00020 suncat1042 pw.x -npool 3 -i  Done                     01/17/2019 02:08:13
00021 suncat1042 pw.x -npool 3 -i  Done                     01/17/2019 02:08:13
00022 suncat1042 pw.x -npool 3 -i  Done                     01/17/2019 02:08:13
00023 suncat1042 pw.x -npool 3 -i  Done                     01/17/2019 02:08:13
00024 suncat1025 pw.x -npool 3 -i  Done                     01/17/2019 02:08:13
00025 suncat1025 pw.x -npool 3 -i  Done                     01/17/2019 02:08:13
00026 suncat1025 pw.x -npool 3 -i  Done                     01/17/2019 02:08:13
00027 suncat1025 pw.x -npool 3 -i  Done                     01/17/2019 02:08:13
00028 suncat1025 pw.x -npool 3 -i  Done                     01/17/2019 02:08:13
00029 suncat1025 pw.x -npool 3 -i  Done                     01/17/2019 02:08:13
00030 suncat1025 pw.x -npool 3 -i  Done                     01/17/2019 02:08:13
00031 suncat1025 pw.x -npool 3 -i  Done                     01/17/2019 02:08:13
00032 suncat1025 pw.x -npool 3 -i  Done                     01/17/2019 02:08:13
00033 suncat1025 pw.x -npool 3 -i  Done                     01/17/2019 02:08:13
00034 suncat1025 pw.x -npool 3 -i  Done                     01/17/2019 02:08:13
00035 suncat1025 pw.x -npool 3 -i  Done                     01/17/2019 02:08:13