     Program PWSCF v.5.1rc2 (svn rev. 11289) starts on 17Jan2019 at  1:33:30

     Current dimensions of program PWSCF are:
     Max number of different atomic species (ntypx) = 10
     Max number of k-points (npk) =  40000
     Max angular momentum in pseudopotentials (lmaxx) =  3

     IMPORTANT: XC functional enforced from input :
     Exchange-correlation      = BEEF-VDW ( 1  4 27 13 2)
     Any further DFT definition will be discarded
     Please, verify this is what you really want

     Subspace diagonalization in iterative solution of the eigenvalue problem:
     a serial algorithm will be used

     bravais-lattice index     =            0
     lattice parameter (alat)  =      12.7122  a.u.
     unit-cell volume          =    6741.9071 (a.u.)^3
     number of atoms/cell      =           13
     number of atomic types    =            2
     number of electrons       =       174.00
     number of Kohn-Sham states=           97
     kinetic-energy cutoff     =      36.7493  Ry
     charge density cutoff     =     367.4933  Ry
     convergence threshold     =      1.0E-04
     mixing beta               =       0.2000
     number of iterations used =            8  plain     mixing
     Exchange-correlation      = BEEF-VDW ( 1  4 27 13 2)
     nstep                     =           50

     celldm(1)=  12.712175  celldm(2)=   0.000000  celldm(3)=   0.000000
     celldm(4)=   0.000000  celldm(5)=   0.000000  celldm(6)=   0.000000

     crystal axes: (cart. coord. in units of alat)
               a(1) = (   1.000000   0.000000   0.000000 )
               a(2) = (   0.500000   0.866025   0.000000 )
               a(3) = (   0.000000   0.000000   3.789593 )

     reciprocal axes: (cart. coord. in units 2 pi/alat)
               b(1) = (  1.000000 -0.577350  0.000000 )
               b(2) = (  0.000000  1.154701  0.000000 )
               b(3) = (  0.000000  0.000000  0.263881 )

     PseudoPot. # 1 for Sn read from file:
     /nfs/slac/g/suncatfs/mamunm/src/decaf-espresso/gbrv15pbe/Sn.UPF
     MD5 check sum: 469debedee59599fedebd795477fea03
     Pseudo is Ultrasoft + core correction, Zval = 14.0
     Generated by new atomic code, or converted to UPF format
     Using radial grid of  891 points,  6 beta functions with:
                l(1) =   0
                l(2) =   0
                l(3) =   1
                l(4) =   1
                l(5) =   2
                l(6) =   2
     Q(r) pseudized with  8 coefficients,  rinner =    1.350   1.350   1.350
                                                       1.350   1.350

     PseudoPot. # 2 for S  read from file:
     /nfs/slac/g/suncatfs/mamunm/src/decaf-espresso/gbrv15pbe/S.UPF
     MD5 check sum: 88d86576ff6df21479756cfb9bdac1df
     Pseudo is Ultrasoft + core correction, Zval =  6.0
     Generated by new atomic code, or converted to UPF format
     Using radial grid of  907 points,  6 beta functions with:
                l(1) =   0
                l(2) =   0
                l(3) =   1
                l(4) =   1
                l(5) =   2
                l(6) =   2
     Q(r) pseudized with  8 coefficients,  rinner =    1.300   1.300   1.300
                                                       1.300   1.300

     vdW kernel table read from file vdW_kernel_table
     MD5 check sum: 095c7af220d748ca6e76c0b4c6cfb241

     atomic species   valence    mass     pseudopotential
        Sn            14.00   118.71000     Sn( 1.00)
        S              6.00    32.06000     S ( 1.00)

     No symmetry found

   Cartesian axes

     site n.     atom                  positions (alat units)
         1           Sn  tau(   1) = (   0.2500000   0.1443376   1.4865483  )
         2           Sn  tau(   2) = (   0.7500000   0.1443376   1.4865483  )
         3           Sn  tau(   3) = (   0.5000000   0.5773503   1.4865483  )
         4           Sn  tau(   4) = (   1.0000000   0.5773503   1.4865483  )
         5           Sn  tau(   5) = (   1.0000000   0.2886751   1.8947966  )
         6           Sn  tau(   6) = (   0.5000000   0.2886751   1.8947966  )
         7           Sn  tau(   7) = (   1.2500000   0.7216878   1.8947966  )
         8           Sn  tau(   8) = (   0.7500000   0.7216878   1.8947966  )
         9           Sn  tau(   9) = (   0.0127850   0.0005548   2.3887796  )
        10           Sn  tau(  10) = (   0.4871890   0.0005512   2.3887736  )
        11           Sn  tau(  11) = (   0.2499827   0.4537588   2.2927655  )
        12           Sn  tau(  12) = (   0.7499818   0.4245051   2.2912342  )
        13           S   tau(  13) = (   0.2499903  -0.0050892   2.6805465  )

     number of k points=    20  Fermi-Dirac smearing, width (Ry)=  0.0110
                       cart. coord. in units 2pi/alat
        k(    1) = (   0.0000000   0.0000000   0.0000000), wk =   0.0555556
        k(    2) = (   0.0000000   0.1924501   0.0000000), wk =   0.1111111
        k(    3) = (   0.0000000   0.3849002   0.0000000), wk =   0.1111111
        k(    4) = (   0.0000000  -0.5773503   0.0000000), wk =   0.0555556
        k(    5) = (   0.1666667  -0.0962250   0.0000000), wk =   0.1111111
        k(    6) = (   0.1666667   0.0962250   0.0000000), wk =   0.1111111
        k(    7) = (   0.1666667   0.2886751   0.0000000), wk =   0.1111111
        k(    8) = (   0.1666667  -0.6735753   0.0000000), wk =   0.1111111
        k(    9) = (   0.1666667  -0.4811252   0.0000000), wk =   0.1111111
        k(   10) = (   0.1666667  -0.2886751   0.0000000), wk =   0.1111111
        k(   11) = (   0.3333333  -0.1924501   0.0000000), wk =   0.1111111
        k(   12) = (   0.3333333   0.0000000   0.0000000), wk =   0.1111111
        k(   13) = (   0.3333333   0.1924501   0.0000000), wk =   0.1111111
        k(   14) = (   0.3333333  -0.7698004   0.0000000), wk =   0.1111111
        k(   15) = (   0.3333333  -0.5773503   0.0000000), wk =   0.1111111
        k(   16) = (   0.3333333  -0.3849002   0.0000000), wk =   0.1111111
        k(   17) = (  -0.5000000   0.2886751   0.0000000), wk =   0.0555556
        k(   18) = (  -0.5000000   0.4811252   0.0000000), wk =   0.1111111
        k(   19) = (  -0.5000000   0.6735753   0.0000000), wk =   0.1111111
        k(   20) = (  -0.5000000  -0.2886751   0.0000000), wk =   0.0555556

     Largest allocated arrays     est. size (Mb)     dimensions
     Largest temporary arrays     est. size (Mb)     dimensions

     Initial potential from superposition of free atoms
     Check: negative starting charge=   -0.001277

     starting charge  161.99942, renormalised to  174.00000

     negative rho (up, down):  1.372E-03 0.000E+00

     *
     * You are using vdW-DF for exchange-correlation in this calculation.
     * Please cite the following three references that made this development
     * possible:
     *
     *   M. Dion, H. Rydberg, E. Schroder, D. C. Langreth, and
     *   B. I. Lundqvist, Phys. Rev. Lett. 92, 246401 (2004).
     *
     *   T. Thonhauser, V. R. Cooper, S. Li, A. Puzder, P. Hyldgaard, and
     *   D. C. Langreth, Phys. Rev. B 76, 125112 (2007).
     *
     *   G. Roman-Perez and J. M. Soler, Phys. Rev. Lett. 103, 096102 (2009).
     *
     *
     * If you are using vdW-DF2, please also cite:
     *
     *   K. Lee, E. D. Murray, L. Kong, B. I. Lundqvist, and
     *   D. C. Langreth, Phys. Rev. B 82, 081101(R) (2010).
     *
     *
     * If you are calculating the stress with vdW-DF, please also cite:
     *
     *   R. Sabatini, E. Kucukbenli, B. Kolb, T. Thonhauser, and
     *   S. de Gironcoli, J. Phys.: Condens. Matter 24, 424209 (2012).
     *

     Carrying out vdW-DF run using the following parameters:

     Nqs =      20    Nr_points =    1024   r_max =   100.000
     q_mesh =
               0.00001000     0.04494208     0.09755937     0.15916263
               0.23128650     0.31572767     0.41458969     0.53033537
               0.66584808     0.82450364     1.01025438     1.22772762
               1.48234092     1.78043706     2.12944203     2.53805004
               3.01644009     3.57652955     4.23227104     5.00000000

     Gradients computed in reciprocal space

     Adding external electric field

     Computed dipole along edir(3) :
        Dipole               -4.3689 Ry au,        -11.1046 Debye
        Dipole field         -0.0081 Ry au

        Potential amp.        0.7061 Ry
        Total length         43.3566 bohr

     Starting wfc are  112 randomized atomic wfcs

     Self-consistent Calculation

     iteration #  1     ecut=    36.75 Ry     beta=0.20
     Davidson diagonalization with overlap
     ethr =  1.00E-02,  avg # of iterations =  7.0

[...]

     total energy              =   -1901.98479642 Ry
     Harris-Foulkes estimate   =   -1958.83806660 Ry
     estimated scf accuracy    <     167.00379958 Ry

[...]

     End of self-consistent calculation

          k = 0.0000 0.0000 0.0000 ( 25377 PWs)   bands (ev):

   -21.6536 -21.6490 -21.6474 -21.6229 -21.6175 -21.6053 -21.6040 -21.6032
   -21.5979 -21.5912 -21.5900 -21.5854 -21.5842 -21.5811 -21.5776 -21.5755
   -21.5737 -21.5724 -21.5717 -21.5685 -21.5604 -21.5604 -21.5523 -21.5511
   -21.5491 -21.5434 -21.5412 -21.5355 -21.5301 -21.5222 -21.5191 -21.5026
   -21.4954 -21.4950 -21.4873 -21.4803 -21.4716 -21.4714 -21.4579 -21.4574
   -21.4530 -21.4522 -21.4510 -21.4501 -21.4482 -21.4478 -21.4433 -21.4391
   -21.4372 -21.4334 -21.4326 -21.4290 -21.4261 -21.4233 -21.4201 -21.4198
   -21.4130 -21.4059 -21.4029 -21.3744 -11.8983 -10.1545  -8.7886  -7.3484
    -6.2242  -6.1621  -6.1369  -5.7830  -5.7023  -5.6518  -5.1646  -4.9730
    -4.7646  -3.4878  -3.4326  -3.3486  -2.7672  -2.7176  -2.4918  -2.4282
    -2.2618  -2.2061  -2.0830  -1.3606  -0.7519  -0.7019   0.3270   1.2382
     1.3123   1.3397   1.6704   2.2142   2.4134   2.6879   3.1098   3.1437
     3.1580

[...]

          k =-0.5000 0.2887 0.0000 ( 25386 PWs)   bands (ev):

[...]

     the Fermi energy is     0.4356 ev

!    total energy              =   -1952.75838321 Ry
     Harris-Foulkes estimate   =   -1952.75830095 Ry
     estimated scf accuracy    <       0.00001763 Ry

     The total energy is the sum of the following terms:

     one-electron contribution =  -10116.42430297 Ry
     hartree contribution      =    5122.02737885 Ry
     xc contribution           =    -542.51667556 Ry
     ewald contribution        =    3584.19581731 Ry
     electric field correction =       0.00063994 Ry
     smearing contrib. (-TS)   =      -0.04124077 Ry

     convergence has been achieved in  14 iterations

     Forces acting on atoms (Ry/au):

     negative rho (up, down):  3.788E-04 0.000E+00
     atom    1 type  1   force =     0.00001207   -0.00541793   -0.00286626
     atom    2 type  1   force =    -0.00004199   -0.00002818    0.00172418
     atom    3 type  1   force =    -0.00161557    0.00274317    0.00417017
     atom    4 type  1   force =     0.00160656    0.00270195    0.00418588
     atom    5 type  1   force =    -0.00221089   -0.00686681    0.00035598
     atom    6 type  1   force =     0.00222213   -0.00689097    0.00037154
     atom    7 type  1   force =    -0.00003696    0.00400686   -0.00199638
     atom    8 type  1   force =     0.00002863    0.00930913    0.00424650
     atom    9 type  1   force =     0.00045796    0.00119214   -0.00343235
     atom   10 type  1   force =    -0.00044015    0.00116635   -0.00347214
     atom   11 type  1   force =     0.00000313   -0.00126318   -0.00201179
     atom   12 type  1   force =     0.00001145    0.00029131   -0.00198594
     atom   13 type  2   force =     0.00000362   -0.00094386    0.00071061

     Total force =     0.006172     Total SCF correction =     0.017627
     SCF correction compared to forces is large: reduce conv_thr to get better values

     BFGS Geometry Optimization

     number of scf cycles    =   1
     number of bfgs steps    =   0

     energy   new            =   -1952.7583832053 Ry

     new trust radius        =       0.0036891557 bohr
     new conv_thr            =       0.0001000000 Ry

ATOMIC_POSITIONS (angstrom)
Sn       1.681748263   0.970957812  10.000000000    0   0   0
Sn       5.045244789   0.970957812  10.000000000    0   0   0
Sn       3.363496526   3.883831250  10.000000000    0   0   0
Sn       6.726993052   3.883831250  10.000000000    0   0   0
Sn       6.726993052   1.941915625  12.746283414    0   0   0
Sn       3.363496526   1.941915625  12.746283414    0   0   0
Sn       8.408741315   4.854789062  12.746283414    0   0   0
Sn       5.045244789   4.854789062  12.746283414    0   0   0
Sn       0.086247280   0.004363270  16.067487419
Sn       3.277084351   0.004324887  16.067425804
Sn       1.681633291   3.051764049  15.422353201
Sn       5.045128124   2.855797291  15.412065439
S        1.681684917  -0.034734511  18.032393491

     Writing output data file calc.save
     Check: negative starting charge=   -0.001277
     NEW-OLD atomic charge density approx. for the potential
     Check: negative starting charge=   -0.001277

[...]

     energy   old            =   -1952.7583832053 Ry
     energy   new            =   -1952.7583875991 Ry

     CASE: energy  _new < energy  _old

[...]

     number of scf cycles    =   3
     number of bfgs steps    =   2

     energy   old            =   -1952.7583875991 Ry
     energy   new            =   -1952.7583997798 Ry

     CASE: energy  _new < energy  _old

     new trust radius        =       0.0025027866 bohr
     new conv_thr            =       0.0000010000 Ry

ATOMIC_POSITIONS (angstrom)
Sn       1.681748263   0.970957812  10.000000000    0   0   0
Sn       5.045244789   0.970957812  10.000000000    0   0   0
Sn       3.363496526   3.883831250  10.000000000    0   0   0
Sn       6.726993052   3.883831250  10.000000000    0   0   0
Sn       6.726993052   1.941915625  12.746283413    0   0   0
Sn       3.363496526   1.941915625  12.746283413    0   0   0
Sn       8.408741315   4.854789062  12.746283413    0   0   0
Sn       5.045244789   4.854789062  12.746283413    0   0   0
Sn       0.085722389   0.005608710  16.067064389
Sn       3.277607919   0.005585869  16.067005507
Sn       1.681640368   3.049826413  15.421570594
Sn       5.045126221   2.857538390  15.411395778
S        1.681687707  -0.036043243  18.030230731

     Writing output data file calc.save
     Check: negative starting charge=   -0.001277
     NEW-OLD atomic charge density approx. for the potential
     Check: negative starting charge=   -0.001277

[...]

     Self-consistent Calculation

[...]

     Threshold (ethr) on eigenvalues was too large:
     Diagonalizing with lowered threshold

     Davidson diagonalization with overlap
     ethr =  7.03E-08,  avg # of iterations =  1.8

[...]

     total energy              =   -1952.75841169 Ry
     Harris-Foulkes estimate   =   -1952.75841241 Ry
     estimated scf accuracy    <       0.00001081 Ry

     iteration #  4     ecut=    36.75 Ry     beta=0.20
     Davidson diagonalization with overlap
     ethr =  6.21E-09,  avg # of iterations =  3.1

     negative rho (up, down):  3.800E-04 0.000E+00

     Adding external electric field

     Computed dipole along edir(3) :
        Dipole               -0.5622 Ry au,         -1.4289 Debye
        Dipole field         -0.0010 Ry au

        Potential amp.        0.0909 Ry
        Total length         43.3566 bohr

     End of self-consistent calculation

[...]

          k = 0.3333-0.3849 0.0000 ( 25368 PWs)   bands (ev):

[...]

          k =-0.5000-0.2887 0.0000 ( 25386 PWs)   bands (ev):

   -21.6253 -21.6205 -21.6025 -21.6004 -21.5982 -21.5964 -21.5932 -21.5919
   -21.5858 -21.5801 -21.5797 -21.5758 -21.5740 -21.5708 -21.5695 -21.5678
   -21.5670 -21.5630 -21.5570 -21.5548 -21.5532 -21.5459 -21.5424 -21.5395
   -21.5355 -21.5319 -21.5243 -21.5231 -21.5169 -21.5142 -21.5114 -21.5039
   -21.5021 -21.5016 -21.4997 -21.4933 -21.4915 -21.4910 -21.4889 -21.4846
   -21.4817 -21.4804 -21.4781 -21.4764 -21.4738 -21.4720 -21.4699 -21.4666
   -21.4633 -21.4597 -21.4505 -21.4464 -21.4401 -21.4392 -21.4308 -21.4285
   -21.4250 -21.4213 -21.4158 -21.4112 -11.8617  -9.0459  -9.0164  -7.8361
    -7.7283  -6.7892  -6.7757  -6.4855  -6.3474  -5.7819  -5.7039  -4.7435
    -4.6754  -2.5862  -2.1238  -1.8864  -1.7445  -1.4835  -1.3884  -1.3664
    -1.1225  -1.0168  -0.4545  -0.2725  -0.1975  -0.0692   0.5991   0.6967
     0.8399   1.0446   1.1903   1.3212   1.5104   1.6640   1.7426   1.7746
     2.0239

     the Fermi energy is     0.4354 ev

!    total energy              =   -1952.75841271 Ry
     Harris-Foulkes estimate   =   -1952.75840940 Ry
     estimated scf accuracy    <       0.00000016 Ry

     The total energy is the sum of the following terms:

     one-electron contribution =  -10119.53324751 Ry
     hartree contribution      =    5123.64577487 Ry
     xc contribution           =    -542.51977908 Ry
     ewald contribution        =    3585.68948791 Ry
     electric field correction =       0.00058906 Ry
     smearing contrib. (-TS)   =      -0.04123796 Ry

     convergence has been achieved in   4 iterations

     Forces acting on atoms (Ry/au):

     negative rho (up, down):  3.800E-04 0.000E+00
     atom    1 type  1   force =    -0.00000396   -0.00547341   -0.00250830
     atom    2 type  1   force =     0.00000475   -0.00012286    0.00180588
     atom    3 type  1   force =    -0.00183415    0.00288362    0.00397602
     atom    4 type  1   force =     0.00183659    0.00288786    0.00397509
     atom    5 type  1   force =    -0.00158683   -0.00614781   -0.00189277
     atom    6 type  1   force =     0.00158377   -0.00614681   -0.00189651
     atom    7 type  1   force =     0.00000527    0.00300136   -0.00579423
     atom    8 type  1   force =    -0.00000697    0.00911822    0.00181998
     atom    9 type  1   force =    -0.00005853    0.00025786    0.00090477
     atom   10 type  1   force =     0.00005759    0.00026424    0.00090770
     atom   11 type  1   force =     0.00000167   -0.00078726    0.00027106
     atom   12 type  1   force =    -0.00000085    0.00107977    0.00037584
     atom   13 type  2   force =     0.00000166   -0.00081479   -0.00194453

     Total force =     0.002869     Total SCF correction =     0.001830
     SCF correction compared to forces is large: reduce conv_thr to get better values

     bfgs converged in   4 scf cycles and   3 bfgs steps
     (criteria: energy <  1.0E+12, force <  1.9E-03)

     End of BFGS Geometry Optimization

     Final energy   =   -1952.7584127102 Ry
Begin final coordinates

ATOMIC_POSITIONS (angstrom)
Sn       1.681748263   0.970957812  10.000000000    0   0   0
Sn       5.045244789   0.970957812  10.000000000    0   0   0
Sn       3.363496526   3.883831250  10.000000000    0   0   0
Sn       6.726993052   3.883831250  10.000000000    0   0   0
Sn       6.726993052   1.941915625  12.746283413    0   0   0
Sn       3.363496526   1.941915625  12.746283413    0   0   0
Sn       8.408741315   4.854789062  12.746283413    0   0   0
Sn       5.045244789   4.854789062  12.746283413    0   0   0
Sn       0.085722389   0.005608710  16.067064389
Sn       3.277607919   0.005585869  16.067005507
Sn       1.681640368   3.049826413  15.421570594
Sn       5.045126221   2.857538390  15.411395778
S        1.681687707  -0.036043243  18.030230731
End final coordinates

     Writing output data file calc.save

     General routines

     Parallel routines

   This run was terminated on:   1:50:22  17Jan2019

   JOB DONE.
Job  /afs/slac/g/suncat/bin/suncat-tsmpirun -x LD_LIBRARY_PATH -wdir /tmp/qe_379332ofu3awtc_scratch pw.x -npool 3 -in pw.pwi

TID   HOST_NAME   COMMAND_LINE            STATUS            TERMINATION_TIME
00000 suncat1049 pw.x -npool 3 -i  Done                     01/17/2019 01:50:22
00001 suncat1049 pw.x -npool 3 -i  Done                     01/17/2019 01:50:22
00002 suncat1049 pw.x -npool 3 -i  Done                     01/17/2019 01:50:22
00003 suncat1049 pw.x -npool 3 -i  Done                     01/17/2019 01:50:22
00004 suncat1049 pw.x -npool 3 -i  Done                     01/17/2019 01:50:22
00005 suncat1049 pw.x -npool 3 -i  Done                     01/17/2019 01:50:22
00006 suncat1049 pw.x -npool 3 -i  Done                     01/17/2019 01:50:22
00007 suncat1049 pw.x -npool 3 -i  Done                     01/17/2019 01:50:22
00008 suncat1049 pw.x -npool 3 -i  Done                     01/17/2019 01:50:22
00009 suncat1049 pw.x -npool 3 -i  Done                     01/17/2019 01:50:22
00010 suncat1049 pw.x -npool 3 -i  Done                     01/17/2019 01:50:22
00011 suncat1049 pw.x -npool 3 -i  Done                     01/17/2019 01:50:22
00012 suncat1045 pw.x -npool 3 -i  Done                     01/17/2019 01:50:22
00013 suncat1045 pw.x -npool 3 -i  Done                     01/17/2019 01:50:22
00014 suncat1045 pw.x -npool 3 -i  Done                     01/17/2019 01:50:22
00015 suncat1045 pw.x -npool 3 -i  Done                     01/17/2019 01:50:22
00016 suncat1045 pw.x -npool 3 -i  Done                     01/17/2019 01:50:22
00017 suncat1045 pw.x -npool 3 -i  Done                     01/17/2019 01:50:22
00018 suncat1045 pw.x -npool 3 -i  Done                     01/17/2019 01:50:22
00019 suncat1045 pw.x -npool 3 -i  Done                     01/17/2019 01:50:22
00020 suncat1045 pw.x -npool 3 -i  Done                     01/17/2019 01:50:22
00021 suncat1045 pw.x -npool 3 -i  Done                     01/17/2019 01:50:22
00022 suncat1045 pw.x -npool 3 -i  Done                     01/17/2019 01:50:22
00023 suncat1045 pw.x -npool 3 -i  Done                     01/17/2019 01:50:22
00024 suncat1029 pw.x -npool 3 -i  Done                     01/17/2019 01:50:22
00025 suncat1029 pw.x -npool 3 -i  Done                     01/17/2019 01:50:22
00026 suncat1029 pw.x -npool 3 -i  Done                     01/17/2019 01:50:22
00027 suncat1029 pw.x -npool 3 -i  Done                     01/17/2019 01:50:22
00028 suncat1029 pw.x -npool 3 -i  Done                     01/17/2019 01:50:22
00029 suncat1029 pw.x -npool 3 -i  Done                     01/17/2019 01:50:22
00030 suncat1029 pw.x -npool 3 -i  Done                     01/17/2019 01:50:22
00031 suncat1029 pw.x -npool 3 -i  Done                     01/17/2019 01:50:22
00032 suncat1029 pw.x -npool 3 -i  Done                     01/17/2019 01:50:22
00033 suncat1029 pw.x -npool 3 -i  Done                     01/17/2019 01:50:22
00034 suncat1029 pw.x -npool 3 -i  Done                     01/17/2019 01:50:22
00035 suncat1029 pw.x -npool 3 -i  Done                     01/17/2019 01:50:22