     Program PWSCF v.5.1rc2 (svn rev. 11289) starts on  4May2018 at  9:58:35

     Current dimensions of program PWSCF are:
     Max number of different atomic species (ntypx) = 10
     Max number of k-points (npk) =  40000
     Max angular momentum in pseudopotentials (lmaxx) =  3
     Presently stress not available with electric field

     IMPORTANT: XC functional enforced from input :
     Exchange-correlation      = BEEF-VDW ( 1  4 27 13 2)
     Any further DFT definition will be discarded
     Please, verify this is what you really want

     Subspace diagonalization in iterative solution of the eigenvalue problem:
     a serial algorithm will be used

     bravais-lattice index     =            0
     lattice parameter (alat)  =       1.8897  a.u.
     unit-cell volume          =    5144.9564 (a.u.)^3
     number of atoms/cell      =           13
     number of atomic types    =            2
     number of electrons       =       138.00
     number of Kohn-Sham states=           79
     kinetic-energy cutoff     =      36.7493  Ry
     charge density cutoff     =     367.4932  Ry
     convergence threshold     =      1.0E-05
     mixing beta               =       0.3000
     number of iterations used =           10  plain     mixing
     Exchange-correlation      = BEEF-VDW ( 1  4 27 13 2)
     nstep                     =           50

     celldm(1)=   1.889726  celldm(2)=   0.000000  celldm(3)=   0.000000
     celldm(4)=   0.000000  celldm(5)=   0.000000  celldm(6)=   0.000000

     crystal axes: (cart. coord. in units of alat)
               a(1) = (   5.950946   0.000000   0.000000 )
               a(2) = (   2.975473   5.153671   0.000000 )
               a(3) = (   0.000000   0.000000  24.858927 )

     reciprocal axes: (cart. coord. in units 2 pi/alat)
               b(1) = (  0.168040 -0.097018  0.000000 )
               b(2) = (  0.000000  0.194036  0.000000 )
               b(3) = (  0.000000  0.000000  0.040227 )

     PseudoPot. # 1 for Au read from file:
     /u/if/mamunm/psp/gbrv1.5pbe/Au.UPF
     MD5 check sum: 9d7f43293ad2c663164586bc4b293ffc
     Pseudo is Ultrasoft + core correction, Zval = 11.0
     Generated by new atomic code, or converted to UPF format
     Using radial grid of  985 points,  7 beta functions with:
                l(1) =   0
                l(2) =   0
                l(3) =   1
                l(4) =   1
                l(5) =   2
                l(6) =   2
                l(7) =   3
     Q(r) pseudized with  6 coefficients,  rinner =    1.900   1.900   1.900
                                                       1.900   1.900   1.900
                                                       1.900

     PseudoPot. # 2 for S  read from file:
     /u/if/mamunm/psp/gbrv1.5pbe/S.UPF
     MD5 check sum: 88d86576ff6df21479756cfb9bdac1df
     Pseudo is Ultrasoft + core correction, Zval =  6.0
     Generated by new atomic code, or converted to UPF format
     Using radial grid of  907 points,  6 beta functions with:
                l(1) =   0
                l(2) =   0
                l(3) =   1
                l(4) =   1
                l(5) =   2
                l(6) =   2
     Q(r) pseudized with  8 coefficients,  rinner =    1.300   1.300   1.300
                                                       1.300   1.300

     vdW kernel table read from file vdW_kernel_table
     MD5 check sum: 095c7af220d748ca6e76c0b4c6cfb241

     atomic species   valence    mass     pseudopotential
        Au1           11.00   196.96657     Au( 1.00)
        S1             6.00    32.06000     S ( 1.00)

     No symmetry found

   Cartesian axes

     site n.     atom                  positions (alat units)
         1           Au1 tau(   1) = (   1.4877366   0.8589451  10.0000000  )
         2           Au1 tau(   2) = (   4.4632098   0.8589451  10.0000000  )
         3           Au1 tau(   3) = (   2.9754732   3.4357805  10.0000000  )
         4           Au1 tau(   4) = (   5.9509464   3.4357805  10.0000000  )
         5           Au1 tau(   5) = (   5.9509464   1.7178903  12.4294637  )
         6           Au1 tau(   6) = (   2.9754732   1.7178903  12.4294637  )
         7           Au1 tau(   7) = (   7.4386830   4.2947256  12.4294637  )
         8           Au1 tau(   8) = (   4.4632098   4.2947256  12.4294637  )
         9           Au1 tau(   9) = (   0.0000000   0.0000000  14.8589274  )
        10           Au1 tau(  10) = (   2.9754732   0.0000000  14.8589274  )
        11           Au1 tau(  11) = (   1.4877366   2.5768354  14.8589274  )
        12           Au1 tau(  12) = (   4.4632098   2.5768354  14.8589274  )
        13           S1  tau(  13) = (   0.0000000   0.0000000  16.9074274  )

     number of k points=    20  Fermi-Dirac smearing, width (Ry)=  0.0110
                       cart. coord. in units 2pi/alat
        k(    1) = (   0.0000000   0.0000000   0.0000000), wk =   0.0555556
        k(    2) = (   0.0000000   0.0323394   0.0000000), wk =   0.1111111
        k(    3) = (   0.0000000   0.0646788   0.0000000), wk =   0.1111111
        k(    4) = (   0.0000000  -0.0970182   0.0000000), wk =   0.0555556
        k(    5) = (   0.0280067  -0.0161697   0.0000000), wk =   0.1111111
        k(    6) = (   0.0280067   0.0161697   0.0000000), wk =   0.1111111
        k(    7) = (   0.0280067   0.0485091   0.0000000), wk =   0.1111111
        k(    8) = (   0.0280067  -0.1131879   0.0000000), wk =   0.1111111
        k(    9) = (   0.0280067  -0.0808485   0.0000000), wk =   0.1111111
        k(   10) = (   0.0280067  -0.0485091   0.0000000), wk =   0.1111111
        k(   11) = (   0.0560135  -0.0323394   0.0000000), wk =   0.1111111
        k(   12) = (   0.0560135   0.0000000   0.0000000), wk =   0.1111111
        k(   13) = (   0.0560135   0.0323394   0.0000000), wk =   0.1111111
        k(   14) = (   0.0560135  -0.1293576   0.0000000), wk =   0.1111111
        k(   15) = (   0.0560135  -0.0970182   0.0000000), wk =   0.1111111
        k(   16) = (   0.0560135  -0.0646788   0.0000000), wk =   0.1111111
        k(   17) = (  -0.0840202   0.0485091   0.0000000), wk =   0.0555556
        k(   18) = (  -0.0840202   0.0808485   0.0000000), wk =   0.1111111
        k(   19) = (  -0.0840202   0.1131879   0.0000000), wk =   0.1111111
        k(   20) = (  -0.0840202  -0.0485091   0.0000000), wk =   0.0555556

     Largest allocated arrays     est. size (Mb)     dimensions
     Largest temporary arrays     est. size (Mb)     dimensions

     Check: negative/imaginary core charge=   -0.000002    0.000000

     Initial potential from superposition of free atoms

     starting charge  137.99850, renormalised to  138.00000

     negative rho (up, down):  6.438E-05 0.000E+00

     *
     * You are using vdW-DF for exchange-correlation in this calculation.
     * Please cite the following three references that made this development
     * possible:
     *
     *   M. Dion, H. Rydberg, E. Schroder, D. C. Langreth, and
     *   B. I. Lundqvist, Phys. Rev. Lett. 92, 246401 (2004).
     *
     *   T. Thonhauser, V. R. Cooper, S. Li, A. Puzder, P. Hyldgaard, and
     *   D. C. Langreth, Phys. Rev. B 76, 125112 (2007).
     *
     *   G. Roman-Perez and J. M. Soler, Phys. Rev. Lett. 103, 096102 (2009).
     *
     *
     * If you are using vdW-DF2, please also cite:
     *
     *   K. Lee, E. D. Murray, L. Kong, B. I. Lundqvist, and
     *   D. C. Langreth, Phys. Rev. B 82, 081101(R) (2010).
     *
     *
     * If you are calculating the stress with vdW-DF, please also cite:
     *
     *   R. Sabatini, E. Kucukbenli, B. Kolb, T. Thonhauser, and
     *   S. de Gironcoli, J. Phys.: Condens. Matter 24, 424209 (2012).
     *

     Carrying out vdW-DF run using the following parameters:

     Nqs =      20    Nr_points =    1024   r_max =   100.000
     q_mesh =
               0.00001000     0.04494208     0.09755937     0.15916263
               0.23128650     0.31572767     0.41458969     0.53033537
               0.66584808     0.82450364     1.01025438     1.22772762
               1.48234092     1.78043706     2.12944203     2.53805004
               3.01644009     3.57652955     4.23227104     5.00000000

     Gradients computed in reciprocal space

     Adding external electric field

     Computed dipole along edir(3) :
        Dipole               -0.0002 Ry au,         -0.0006 Debye
        Dipole field         -0.0000 Ry au

        Potential amp.        0.0001 Ry
        Total length         45.8022 bohr

     Starting wfc are  112 randomized atomic wfcs

     Self-consistent Calculation

     iteration #  1     ecut=    36.75 Ry     beta=0.30
     Davidson diagonalization with overlap
     ethr =  1.00E-02,  avg # of iterations =  2.2

     Threshold (ethr) on eigenvalues was too large:
     Diagonalizing with lowered threshold

     Davidson diagonalization with overlap
     ethr =  9.05E-04,  avg # of iterations =  1.6

[...]

     total energy              =   -1424.34679426 Ry
     Harris-Foulkes estimate   =   -1424.91957073 Ry
     estimated scf accuracy    <       1.31426585 Ry

[...]

     End of self-consistent calculation

          k = 0.0000 0.0000 0.0000 ( 19315 PWs)   bands (ev):

   -12.5077  -7.9235  -6.5781  -6.2556  -6.0033  -6.0033  -5.9802  -5.8070
    -5.8070  -5.7112  -5.6347  -5.6347  -5.5491  -5.3565  -5.3565  -5.2842
    -4.9953  -4.9561  -4.9561  -4.2774  -4.1992  -4.1992  -4.1053  -4.0404
    -4.0404  -3.9695  -3.9166  -3.9166  -3.8037  -3.8037  -3.7142  -3.6774
    -3.6774  -3.4778  -3.2558  -3.2558  -3.1044  -3.1044  -2.7906  -2.7906
    -2.7178  -2.6314  -2.6314  -2.5706  -2.4085  -2.4085  -2.3429  -2.1152
    -2.1152  -2.0261  -1.9658  -1.9658  -1.9328  -1.9328  -1.8317  -1.8317
    -1.8043  -1.7364  -1.7364  -1.5357  -1.5245  -1.5245  -1.5028  -1.4667
    -0.8232  -0.8232   0.0743   0.6559   0.8636   0.8637   1.3969   1.4750
     1.5512   1.5512   1.7090   2.0446   2.0446   3.3363   3.3363

[...]

          k =-0.0840 0.0485 0.0000 ( 19380 PWs)   bands (ev):

[...]

     the Fermi energy is     0.1615 ev

!    total energy              =   -1424.78794564 Ry
     Harris-Foulkes estimate   =   -1424.78796295 Ry
     estimated scf accuracy    <       0.00000322 Ry

     The total energy is the sum of the following terms:

     one-electron contribution =   -8223.50480391 Ry
     hartree contribution      =    4209.53167658 Ry
     xc contribution           =    -776.90069844 Ry
     ewald contribution        =    3366.11790536 Ry
     electric field correction =       0.00012771 Ry
     smearing contrib. (-TS)   =      -0.03215293 Ry

     convergence has been achieved in  11 iterations

 BEEF-vdW xc energy contributions
           1 :   -694.139999189783
           2 :    644.909682971240
           3 :   -556.950508271083
           4 :    447.406624679688
           5 :   -334.731713251314
           6 :    233.939589947876
           7 :   -153.779403164251
           8 :    96.2934799039429
           9 :   -58.4519719185215
          10 :    34.8491702885606
          11 :   -20.2532538960438
          12 :    11.0743850342711
          13 :   -5.51231716025450
          14 :    2.78155148463202
          15 :   -2.14990375459979
          16 :    2.39952199401750
          17 :   -1.95894314844350
          18 :  -0.476826202512143
          19 :    5.27292282047051
          20 :   -11.5761914812385
          21 :    17.6289944553051
          22 :   -21.5471656377794
          23 :    22.1678121580322
          24 :   -19.5488826202469
          25 :    14.8870198934726
          26 :   -9.92810711589948
          27 :    6.18597086804652
          28 :   -4.36135218374750
          29 :    4.21500658033472
          30 :   -4.90402135277509
          31 :   -55.1024954926920
          32 :   -40.1111714019348

     Forces acting on atoms (Ry/au):

     negative rho (up, down):  1.616E-04 0.000E+00
     atom    1 type  1   force =    -0.00125955   -0.00072716   -0.00452923
     atom    2 type  1   force =     0.00125630   -0.00073271   -0.00453085
     atom    3 type  1   force =     0.00000123    0.00146080   -0.00454192
     atom    4 type  1   force =     0.00000286    0.00000382   -0.00288786
     atom    5 type  1   force =    -0.00000138   -0.00150694    0.00224267
     atom    6 type  1   force =    -0.00000013   -0.00000213    0.00323152
     atom    7 type  1   force =     0.00130082    0.00075852    0.00225004
     atom    8 type  1   force =    -0.00130460    0.00075664    0.00225595
     atom    9 type  1   force =    -0.00000090   -0.00000233   -0.17475929
     atom   10 type  1   force =     0.00000393    0.00044129   -0.00155989
     atom   11 type  1   force =     0.00038728   -0.00022835   -0.00158675
     atom   12 type  1   force =    -0.00038624   -0.00021947   -0.00158459
     atom   13 type  2   force =     0.00000038   -0.00000200    0.18600020

     Total force =     0.255235     Total SCF correction =     0.006949

     entering subroutine stress ...

     negative rho (up, down):  1.616E-04 0.000E+00
          total   stress  (Ry/bohr**3)                   (kbar)     P=    0.43
  -0.00008135   0.00000000   0.00000000        -11.97      0.00      0.00
   0.00000000  -0.00008135   0.00000000          0.00    -11.97      0.00
   0.00000000   0.00000000   0.00017144          0.00      0.00     25.22

     BFGS Geometry Optimization

     number of scf cycles    =   1
     number of bfgs steps    =   0

     energy   new            =   -1424.7879456355 Ry

     new trust radius        =       0.1860001986 bohr
     new conv_thr            =       0.0000099958 Ry

ATOMIC_POSITIONS (crystal)
Au1      0.166666667   0.166666667   0.402269971    0   0   0
Au1      0.666666667   0.166666667   0.402269971    0   0   0
Au1      0.166666667   0.666666667   0.402269971    0   0   0
Au1      0.666666667   0.666666667   0.402269971    0   0   0
Au1      0.833333333   0.333333333   0.500000000    0   0   0
Au1      0.333333333   0.333333333   0.500000000    0   0   0
Au1      0.833333333   0.833333333   0.500000000    0   0   0
Au1      0.333333333   0.833333333   0.500000000    0   0   0
Au1      0.000000039  -0.000000239   0.594009891
Au1      0.499977693   0.000045312   0.597696823
Au1      0.000046162   0.499976554   0.597696252
Au1      0.499976922   0.499977465   0.597696298
S1       0.000000136  -0.000000205   0.684094458

     Writing output data file calc.save
     NEW-OLD atomic charge density approx. for the potential

[...]

     Total force =     0.025412     Total SCF correction =     0.005821
     SCF correction compared to forces is large: reduce conv_thr to get better values

[...]

     energy   old            =   -1424.7879456355 Ry
     energy   new            =   -1424.8197842437 Ry

     CASE: energy  _new < energy  _old

[...]

     Total force =     0.003444     Total SCF correction =     0.000597
     SCF correction compared to forces is large: reduce conv_thr to get better values

[...]

     number of scf cycles    =   9
     number of bfgs steps    =   8

     energy   old            =   -1424.8212506595 Ry
     energy   new            =   -1424.8213214438 Ry

     CASE: energy  _new < energy  _old

     new trust radius        =       0.0056400399 bohr
     new conv_thr            =       0.0000001000 Ry

ATOMIC_POSITIONS (crystal)
Au1      0.166666667   0.166666667   0.402269971    0   0   0
Au1      0.666666667   0.166666667   0.402269971    0   0   0
Au1      0.166666667   0.666666667   0.402269971    0   0   0
Au1      0.666666667   0.666666667   0.402269971    0   0   0
Au1      0.833333333   0.333333333   0.500000000    0   0   0
Au1      0.333333333   0.333333333   0.500000000    0   0   0
Au1      0.833333333   0.833333333   0.500000000    0   0   0
Au1      0.333333333   0.833333333   0.500000000    0   0   0
Au1     -0.000000277   0.000000179   0.596505050
Au1      0.499568961   0.000861983   0.598587740
Au1      0.000861590   0.499569221   0.598587705
Au1      0.499568862   0.499568890   0.598587800
S1       0.000000458  -0.000000387   0.688188171

     Writing output data file calc.save
     NEW-OLD atomic charge density approx. for the potential

     Check: negative/imaginary core charge=   -0.000002    0.000000

[...]

     Self-consistent Calculation

[...]

     Threshold (ethr) on eigenvalues was too large:
     Diagonalizing with lowered threshold

     Davidson diagonalization with overlap
     ethr =  1.17E-08,  avg # of iterations =  2.5

[...]

     total energy              =   -1424.82133011 Ry
     Harris-Foulkes estimate   =   -1424.82133015 Ry
     estimated scf accuracy    <       0.00000020 Ry

     iteration #  6     ecut=    36.75 Ry     beta=0.30
     Davidson diagonalization with overlap
     ethr =  1.42E-10,  avg # of iterations =  2.5

[...]

     negative rho (up, down):  1.557E-04 0.000E+00

     Adding external electric field

     Computed dipole along edir(3) :
        Dipole               -0.3284 Ry au,         -0.8348 Debye
        Dipole field         -0.0008 Ry au

        Potential amp.        0.0735 Ry
        Total length         45.8022 bohr

     End of self-consistent calculation

[...]

          k = 0.0560-0.0647 0.0000 ( 19376 PWs)   bands (ev):

[...]

          k =-0.0840-0.0485 0.0000 ( 19380 PWs)   bands (ev):

   -11.6080  -6.5964  -6.5557  -5.5854  -5.5220  -5.4445  -5.3925  -5.3053
    -5.2831  -5.2670  -5.2605  -5.0519  -4.9543  -4.8988  -4.7873  -4.7002
    -4.6482  -4.6136  -4.5073  -4.5008  -4.4292  -4.3851  -4.3073  -4.2440
    -4.1433  -4.0241  -4.0047  -3.9156  -3.7995  -3.7489  -3.7332  -3.6705
    -3.6425  -3.5913  -3.5904  -3.5411  -3.5110  -3.4949  -3.4806  -3.4782
    -3.4318  -3.3679  -3.2525  -3.2244  -3.1041  -2.9967  -2.9785  -2.9233
    -2.9232  -2.8638  -2.8121  -2.7599  -2.7425  -2.6708  -2.6024  -2.4839
    -2.4699  -2.3628  -2.1454  -2.0823  -2.0521  -2.0353  -2.0038  -1.8612
    -1.8189  -0.7060  -0.6249  -0.5135  -0.0372   0.1402   0.4277   0.7477
     1.2839   1.6519   3.0905   3.1485   3.6385   4.4486   5.3315

     the Fermi energy is     0.0368 ev

!    total energy              =   -1424.82133013 Ry
     Harris-Foulkes estimate   =   -1424.82132971 Ry
     estimated scf accuracy    <       0.00000001 Ry

     The total energy is the sum of the following terms:

     one-electron contribution =   -8169.41207613 Ry
     hartree contribution      =    4182.26181179 Ry
     xc contribution           =    -776.75786412 Ry
     ewald contribution        =    3339.12029460 Ry
     electric field correction =       0.00026348 Ry
     smearing contrib. (-TS)   =      -0.03375976 Ry

     convergence has been achieved in   6 iterations

 BEEF-vdW xc energy contributions
           1 :   -693.988525904220
           2 :    644.686809530492
           3 :   -556.640072942608
           4 :    447.058248377533
           5 :   -334.428423334289
           6 :    233.751968166334
           7 :   -153.731113946415
           8 :    96.3521952118102
           9 :   -58.5467160228117
          10 :    34.9039256179736
          11 :   -20.2209926550125
          12 :    10.9560815671863
          13 :   -5.35225329837397
          14 :    2.64294724222339
          15 :   -2.08373660050211
          16 :    2.42204277587950
          17 :   -2.04869324742560
          18 :  -0.363477852051687
          19 :    5.17781923076825
          20 :   -11.5190635135945
          21 :    17.6019987671407
          22 :   -21.5262618106384
          23 :    22.1326072598756
          24 :   -19.4980608705220
          25 :    14.8397174812537
          26 :   -9.91062504483364
          27 :    6.21226845921854
          28 :   -4.42002991555353
          29 :    4.27196403401456
          30 :   -4.91960939515388
          31 :   -55.0920614330395
          32 :   -40.0835375318734

     Forces acting on atoms (Ry/au):

     negative rho (up, down):  1.557E-04 0.000E+00
     atom    1 type  1   force =    -0.00127186   -0.00073430   -0.00449345
     atom    2 type  1   force =     0.00127183   -0.00073432   -0.00449344
     atom    3 type  1   force =     0.00000002    0.00146860   -0.00449343
     atom    4 type  1   force =     0.00000001   -0.00000001   -0.00133352
     atom    5 type  1   force =    -0.00000010   -0.00041269    0.00395509
     atom    6 type  1   force =    -0.00000005    0.00000004    0.00489492
     atom    7 type  1   force =     0.00035741    0.00020638    0.00395535
     atom    8 type  1   force =    -0.00035739    0.00020626    0.00395515
     atom    9 type  1   force =     0.00000015   -0.00000031    0.00044224
     atom   10 type  1   force =    -0.00000023   -0.00059238   -0.00061488
     atom   11 type  1   force =    -0.00051289    0.00029626   -0.00061476
     atom   12 type  1   force =     0.00051302    0.00029650   -0.00061485
     atom   13 type  2   force =     0.00000007   -0.00000006   -0.00054443

     Total force =     0.001637     Total SCF correction =     0.000140

     entering subroutine stress ...

     negative rho (up, down):  1.557E-04 0.000E+00
          total   stress  (Ry/bohr**3)                   (kbar)     P=   -9.79
  -0.00010504   0.00000000   0.00000000        -15.45      0.00      0.00
   0.00000000  -0.00010504  -0.00000000          0.00    -15.45     -0.00
   0.00000000  -0.00000000   0.00001047          0.00     -0.00      1.54

     bfgs converged in  10 scf cycles and   9 bfgs steps
     (criteria: energy <  1.0E+00, force <  1.9E-03)

     End of BFGS Geometry Optimization

     Final energy   =   -1424.8213301346 Ry
Begin final coordinates

ATOMIC_POSITIONS (crystal)
Au1      0.166666667   0.166666667   0.402269971    0   0   0
Au1      0.666666667   0.166666667   0.402269971    0   0   0
Au1      0.166666667   0.666666667   0.402269971    0   0   0
Au1      0.666666667   0.666666667   0.402269971    0   0   0
Au1      0.833333333   0.333333333   0.500000000    0   0   0
Au1      0.333333333   0.333333333   0.500000000    0   0   0
Au1      0.833333333   0.833333333   0.500000000    0   0   0
Au1      0.333333333   0.833333333   0.500000000    0   0   0
Au1     -0.000000277   0.000000179   0.596505050
Au1      0.499568961   0.000861983   0.598587740
Au1      0.000861590   0.499569221   0.598587705
Au1      0.499568862   0.499568890   0.598587800
S1       0.000000458  -0.000000387   0.688188171
End final coordinates

     Writing output data file calc.save

     General routines

     Parallel routines

   This run was terminated on:  11: 8:49   4May2018

   JOB DONE.
Job  /afs/slac/g/suncat/bin/suncat-tsmpirun -x LD_LIBRARY_PATH -wdir /scratch/qe930085_BAyM6 pw.x -npool 4 -in pw.inp

TID   HOST_NAME   COMMAND_LINE            STATUS            TERMINATION_TIME
00000 suncat0248 pw.x -npool 4 -i  Done                     05/04/2018 11:08:49
00001 suncat0248 pw.x -npool 4 -i  Done                     05/04/2018 11:08:49
00002 suncat0248 pw.x -npool 4 -i  Done                     05/04/2018 11:08:49
00003 suncat0248 pw.x -npool 4 -i  Done                     05/04/2018 11:08:49
00004 suncat0248 pw.x -npool 4 -i  Done                     05/04/2018 11:08:49
00005 suncat0248 pw.x -npool 4 -i  Done                     05/04/2018 11:08:49
00006 suncat0248 pw.x -npool 4 -i  Done                     05/04/2018 11:08:49
00007 suncat0248 pw.x -npool 4 -i  Done                     05/04/2018 11:08:49
00008 suncat0233 pw.x -npool 4 -i  Done                     05/04/2018 11:08:49
00009 suncat0233 pw.x -npool 4 -i  Done                     05/04/2018 11:08:49
00010 suncat0233 pw.x -npool 4 -i  Done                     05/04/2018 11:08:49
00011 suncat0233 pw.x -npool 4 -i  Done                     05/04/2018 11:08:49
00012 suncat0233 pw.x -npool 4 -i  Done                     05/04/2018 11:08:49
00013 suncat0233 pw.x -npool 4 -i  Done                     05/04/2018 11:08:49
00014 suncat0233 pw.x -npool 4 -i  Done                     05/04/2018 11:08:49
00015 suncat0233 pw.x -npool 4 -i  Done                     05/04/2018 11:08:49
00016 suncat0223 pw.x -npool 4 -i  Done                     05/04/2018 11:08:49
00017 suncat0223 pw.x -npool 4 -i  Done                     05/04/2018 11:08:49
00018 suncat0223 pw.x -npool 4 -i  Done                     05/04/2018 11:08:49
00019 suncat0223 pw.x -npool 4 -i  Done                     05/04/2018 11:08:49
00020 suncat0223 pw.x -npool 4 -i  Done                     05/04/2018 11:08:49
00021 suncat0223 pw.x -npool 4 -i  Done                     05/04/2018 11:08:49
00022 suncat0223 pw.x -npool 4 -i  Done                     05/04/2018 11:08:49
00023 suncat0223 pw.x -npool 4 -i  Done                     05/04/2018 11:08:49
00024 suncat0222 pw.x -npool 4 -i  Done                     05/04/2018 11:08:49
00025 suncat0222 pw.x -npool 4 -i  Done                     05/04/2018 11:08:49
00026 suncat0222 pw.x -npool 4 -i  Done                     05/04/2018 11:08:49
00027 suncat0222 pw.x -npool 4 -i  Done                     05/04/2018 11:08:49
00028 suncat0222 pw.x -npool 4 -i  Done                     05/04/2018 11:08:49
00029 suncat0222 pw.x -npool 4 -i  Done                     05/04/2018 11:08:49
00030 suncat0222 pw.x -npool 4 -i  Done                     05/04/2018 11:08:49
00031 suncat0222 pw.x -npool 4 -i  Done                     05/04/2018 11:08:49