     Program PWSCF v.5.1rc2 (svn rev. ) starts on 18Apr2018 at 22:42: 2

     Current dimensions of program PWSCF are:
     Max number of different atomic species (ntypx) = 10
     Max number of k-points (npk) =  40000
     Max angular momentum in pseudopotentials (lmaxx) =  3
     Presently stress not available with electric field

     IMPORTANT: XC functional enforced from input :
     Exchange-correlation      = BEEF-VDW ( 1  4 27 13 2)
     Any further DFT definition will be discarded
     Please, verify this is what you really want

     Subspace diagonalization in iterative solution of the eigenvalue problem:
     a serial algorithm will be used

     bravais-lattice index     =            0
     lattice parameter (alat)  =       1.8897  a.u.
     unit-cell volume          =    8507.0471 (a.u.)^3
     number of atoms/cell      =           15
     number of atomic types    =            3
     number of electrons       =       138.00
     number of Kohn-Sham states=           79
     kinetic-energy cutoff     =      36.7493  Ry
     charge density cutoff     =     367.4932  Ry
     convergence threshold     =      1.0E-05
     mixing beta               =       0.3000
     number of iterations used =           10  plain     mixing
     Exchange-correlation      = BEEF-VDW ( 1  4 27 13 2)
     nstep                     =           50

     celldm(1)=   1.889726  celldm(2)=   0.000000  celldm(3)=   0.000000
     celldm(4)=   0.000000  celldm(5)=   0.000000  celldm(6)=   0.000000

     crystal axes: (cart. coord. in units of alat)
               a(1) = (   7.468327   0.000000   0.000000 )
               a(2) = (   3.734164   6.467761   0.000000 )
               a(3) = (   0.000000   0.000000  26.097863 )

     reciprocal axes: (cart. coord. in units 2 pi/alat)
               b(1) = (  0.133899 -0.077307  0.000000 )
               b(2) = (  0.000000  0.154613  0.000000 )
               b(3) = (  0.000000  0.000000  0.038317 )

     PseudoPot. # 1 for La read from file:
     /home/mamunm/src/pseudo/gbrv1.5pbe/La.UPF
     MD5 check sum: 5937b0c7494ba0601a847275249473aa
     Pseudo is Ultrasoft + core correction, Zval = 11.0
     Generated by new atomic code, or converted to UPF format
     Using radial grid of  995 points,  8 beta functions with:
                l(1) =   0
                l(2) =   0
                l(3) =   1
                l(4) =   1
                l(5) =   2
                l(6) =   2
                l(7) =   3
                l(8) =   3
     Q(r) pseudized with  8 coefficients,  rinner =    1.700   1.700   1.700
                                                       1.700   1.700   1.700
                                                       1.700

     PseudoPot. # 2 for C  read from file:
     /home/mamunm/src/pseudo/gbrv1.5pbe/C.UPF
     MD5 check sum: d1aef80898a10debaa0f26306b886e00
     Pseudo is Ultrasoft + core correction, Zval =  4.0
     Generated by new atomic code, or converted to UPF format
     Using radial grid of  721 points,  4 beta functions with:
                l(1) =   0
                l(2) =   0
                l(3) =   1
                l(4) =   1
     Q(r) pseudized with  8 coefficients,  rinner =    1.100   1.100   1.100

     PseudoPot. # 3 for H  read from file:
     /home/mamunm/src/pseudo/gbrv1.5pbe/H.UPF
     MD5 check sum: 761ae9a214b05c3daf00ab9f6b793d6f
     Pseudo is Ultrasoft, Zval =  1.0
     Generated by new atomic code, or converted to UPF format
     Using radial grid of  615 points,  2 beta functions with:
                l(1) =   0
                l(2) =   0
     Q(r) pseudized with  8 coefficients,  rinner =    0.700

     vdW kernel table read from file vdW_kernel_table
     MD5 check sum: 095c7af220d748ca6e76c0b4c6cfb241

     atomic species   valence    mass     pseudopotential
        La1           11.00   138.90547     La( 1.00)
        C1             4.00    12.01100     C ( 1.00)
        H1             1.00     1.00800     H ( 1.00)

     No symmetry found

   Cartesian axes

     site n.     atom                  positions (alat units)
         1           La1 tau(   1) = (   1.8670818   1.0779602  10.0000000  )
         2           La1 tau(   2) = (   5.6012453   1.0779602  10.0000000  )
         3           La1 tau(   3) = (   3.7341635   4.3118406  10.0000000  )
         4           La1 tau(   4) = (   7.4683270   4.3118406  10.0000000  )
         5           La1 tau(   5) = (   7.4683270   2.1559203  13.0489317  )
         6           La1 tau(   6) = (   3.7341635   2.1559203  13.0489317  )
         7           La1 tau(   7) = (   9.3354088   5.3898008  13.0489317  )
         8           La1 tau(   8) = (   5.6012453   5.3898008  13.0489317  )
         9           La1 tau(   9) = (   0.0000000   0.0000000  16.0978635  )
        10           La1 tau(  10) = (   3.7341635   0.0000000  16.0978635  )
        11           La1 tau(  11) = (   1.8670818   3.2338805  16.0978635  )
        12           La1 tau(  12) = (   5.6012453   3.2338805  16.0978635  )
        13           C1  tau(  13) = (   3.7341635   2.1559203  17.9373635  )
        14           H1  tau(  14) = (   4.3641635   2.7859203  18.5673635  )
        15           H1  tau(  15) = (   3.1041635   1.5259203  18.5673635  )

     number of k points=    20  Fermi-Dirac smearing, width (Ry)=  0.0110
                       cart. coord. in units 2pi/alat
        k(    1) = (   0.0000000   0.0000000   0.0000000), wk =   0.0555556
        k(    2) = (   0.0000000   0.0257688   0.0000000), wk =   0.1111111
        k(    3) = (   0.0000000   0.0515377   0.0000000), wk =   0.1111111
        k(    4) = (   0.0000000  -0.0773065   0.0000000), wk =   0.0555556
        k(    5) = (   0.0223165  -0.0128844   0.0000000), wk =   0.1111111
        k(    6) = (   0.0223165   0.0128844   0.0000000), wk =   0.1111111
        k(    7) = (   0.0223165   0.0386533   0.0000000), wk =   0.1111111
        k(    8) = (   0.0223165  -0.0901909   0.0000000), wk =   0.1111111
        k(    9) = (   0.0223165  -0.0644221   0.0000000), wk =   0.1111111
        k(   10) = (   0.0223165  -0.0386533   0.0000000), wk =   0.1111111
        k(   11) = (   0.0446329  -0.0257688   0.0000000), wk =   0.1111111
        k(   12) = (   0.0446329   0.0000000   0.0000000), wk =   0.1111111
        k(   13) = (   0.0446329   0.0257688   0.0000000), wk =   0.1111111
        k(   14) = (   0.0446329  -0.1030753   0.0000000), wk =   0.1111111
        k(   15) = (   0.0446329  -0.0773065   0.0000000), wk =   0.1111111
        k(   16) = (   0.0446329  -0.0515377   0.0000000), wk =   0.1111111
        k(   17) = (  -0.0669494   0.0386533   0.0000000), wk =   0.0555556
        k(   18) = (  -0.0669494   0.0644221   0.0000000), wk =   0.1111111
        k(   19) = (  -0.0669494   0.0901909   0.0000000), wk =   0.1111111
        k(   20) = (  -0.0669494  -0.0386533   0.0000000), wk =   0.0555556

     Largest allocated arrays     est. size (Mb)     dimensions
     Largest temporary arrays     est. size (Mb)     dimensions

     Initial potential from superposition of free atoms
     Check: negative starting charge=   -0.830957

     starting charge  137.61512, renormalised to  138.00000

     negative rho (up, down):  8.333E-01 0.000E+00

     *
     * You are using vdW-DF for exchange-correlation in this calculation.
     * Please cite the following three references that made this development
     * possible:
     *
     *   M. Dion, H. Rydberg, E. Schroder, D. C. Langreth, and
     *   B. I. Lundqvist, Phys. Rev. Lett. 92, 246401 (2004).
     *
     *   T. Thonhauser, V. R. Cooper, S. Li, A. Puzder, P. Hyldgaard, and
     *   D. C. Langreth, Phys. Rev. B 76, 125112 (2007).
     *
     *   G. Roman-Perez and J. M. Soler, Phys. Rev. Lett. 103, 096102 (2009).
     *
     *
     * If you are using vdW-DF2, please also cite:
     *
     *   K. Lee, E. D. Murray, L. Kong, B. I. Lundqvist, and
     *   D. C. Langreth, Phys. Rev. B 82, 081101(R) (2010).
     *
     *
     * If you are calculating the stress with vdW-DF, please also cite:
     *
     *   R. Sabatini, E. Kucukbenli, B. Kolb, T. Thonhauser, and
     *   S. de Gironcoli, J. Phys.: Condens. Matter 24, 424209 (2012).
     *

     Carrying out vdW-DF run using the following parameters:

     Nqs =      20    Nr_points =    1024   r_max =   100.000
     q_mesh =
               0.00001000     0.04494208     0.09755937     0.15916263
               0.23128650     0.31572767     0.41458969     0.53033537
               0.66584808     0.82450364     1.01025438     1.22772762
               1.48234092     1.78043706     2.12944203     2.53805004
               3.01644009     3.57652955     4.23227104     5.00000000

     Gradients computed in reciprocal space

     Adding external electric field

     Computed dipole along edir(3) :
        Dipole               -0.1611 Ry au,         -0.4095 Debye
        Dipole field         -0.0002 Ry au

        Potential amp.        0.0229 Ry
        Total length         48.0849 bohr

     Starting wfc are  246 randomized atomic wfcs

     Self-consistent Calculation

     iteration #  1     ecut=    36.75 Ry     beta=0.30
     Davidson diagonalization with overlap
     ethr =  1.00E-02,  avg # of iterations =  2.0

[...]

     total energy              =   -1259.57098631 Ry
     Harris-Foulkes estimate   =   -1263.14875428 Ry
     estimated scf accuracy    <       7.62493830 Ry

[...]

     iteration # 12     ecut=    36.75 Ry     beta=0.30
     Davidson diagonalization with overlap
     c_bands:  1 eigenvalues not converged
     ethr =  3.17E-05,  avg # of iterations = 10.3

[...]

     End of self-consistent calculation

          k = 0.0000 0.0000 0.0000 ( 31997 PWs)   bands (ev):

   -31.5484 -31.5344 -31.4052 -31.4035 -31.4010 -31.3734 -31.2992 -31.2536
   -31.0640 -30.9439 -30.9427 -30.9424 -15.6372 -15.6326 -15.6186 -15.5668
   -15.5614 -15.5069 -15.4844 -15.3908 -15.3668 -15.3582 -15.1984 -15.0522
   -14.9926 -14.9708 -14.8629 -14.8193 -14.7963 -14.7952 -14.7929 -14.7901
   -14.7587 -14.7405 -14.7017 -14.5396 -14.5392 -14.4627 -14.4584 -14.4513
   -14.4459 -14.4381 -14.4129 -14.3411 -14.3400 -14.3372 -14.1145 -14.1128
    -9.7924  -4.1602  -1.2441  -0.8252  -0.1804   0.1344   0.1632   0.1717
     0.2401   0.3750   0.4752   0.5089   0.6107   0.6837   0.7918   0.7933
     0.7970   1.1076   1.1126   1.5938   1.8060   1.8272   2.0170   2.3821
     2.3974   2.4705   2.6555   2.8204   2.9322   3.0331   3.0363

[...]

          k =-0.0669 0.0387 0.0000 ( 31970 PWs)   bands (ev):

[...]

     the Fermi energy is     1.8269 ev

!    total energy              =   -1262.17718752 Ry
     Harris-Foulkes estimate   =   -1262.17720955 Ry
     estimated scf accuracy    <       0.00000777 Ry

     The total energy is the sum of the following terms:

     one-electron contribution =   -4778.22803145 Ry
     hartree contribution      =    2402.52854958 Ry
     xc contribution           =    -613.75873038 Ry
     ewald contribution        =    1727.40660828 Ry
     electric field correction =       0.00004395 Ry
     smearing contrib. (-TS)   =      -0.12562748 Ry

     convergence has been achieved in  20 iterations

 BEEF-vdW xc energy contributions
           1 :   -543.651137006390
           2 :    500.026499539996
           3 :   -422.902016650422
           4 :    328.742519620480
           5 :   -235.010504553863
           6 :    155.528800565766
           7 :   -97.8755599776812
           8 :    63.0762004778608
           9 :   -47.0882830263647
          10 :    43.1826293684859
          11 :   -44.3263340506692
          12 :    44.9077700567966
          13 :   -41.5547145892035
          14 :    33.1845265833998
          15 :   -20.6190587655767
          16 :    6.01959839780193
          17 :    7.77473422841854
          18 :   -18.0123334673422
          19 :    22.8216901289165
          20 :   -21.8192996052180
          21 :    16.2767766909560
          22 :   -8.71681532451305
          23 :    2.03278911279870
          24 :    1.54560102379332
          25 :   -1.21935454668937
          26 :   -2.21178618825957
          27 :    6.84320829046806
          28 :   -10.5749357798104
          29 :    12.0030091076635
          30 :   -10.9025885217543
          31 :   -46.3685683628034
          32 :   -33.2781814825855

     Forces acting on atoms (Ry/au):

     negative rho (up, down):  5.854E-01 0.000E+00
     atom    1 type  1   force =    -0.00100089   -0.00058275    0.00431769
     atom    2 type  1   force =     0.00039499   -0.00019428    0.00334328
     atom    3 type  1   force =     0.00004567    0.00076095    0.00383087
     atom    4 type  1   force =    -0.00077792    0.00000264    0.00513222
     atom    5 type  1   force =     0.00085740    0.00016466   -0.00502757
     atom    6 type  1   force =     0.00084457    0.00000454   -0.00883747
     atom    7 type  1   force =     0.00057117   -0.00010455   -0.00605732
     atom    8 type  1   force =     0.00108318   -0.00009975   -0.00378067
     atom    9 type  1   force =    -0.00450464   -0.00001256   -0.00272991
     atom   10 type  1   force =    -0.00039619    0.03637359    0.02094230
     atom   11 type  1   force =     0.02513401   -0.01476959    0.01556101
     atom   12 type  1   force =    -0.03812329   -0.02174849    0.02537502
     atom   13 type  2   force =     0.01488110    0.00098165   -0.08075152
     atom   14 type  3   force =     0.00683576    0.00591151    0.01457227
     atom   15 type  3   force =    -0.00584496   -0.00668758    0.01410981

     Total force =     0.112991     Total SCF correction =     0.005167

     entering subroutine stress ...

     negative rho (up, down):  5.854E-01 0.000E+00
          total   stress  (Ry/bohr**3)                   (kbar)     P=   -2.46
  -0.00001215  -0.00000269   0.00000612         -1.79     -0.40      0.90
  -0.00000269  -0.00001244   0.00000001         -0.40     -1.83      0.00
   0.00000612   0.00000001  -0.00002566          0.90      0.00     -3.77

     BFGS Geometry Optimization

     number of scf cycles    =   1
     number of bfgs steps    =   0

     energy   new            =   -1262.1771875198 Ry

     new trust radius        =       0.0821171082 bohr
     new conv_thr            =       0.0000099958 Ry

ATOMIC_POSITIONS (crystal)
La1      0.166666667   0.166666667   0.383173129    0   0   0
La1      0.666666667   0.166666667   0.383173129    0   0   0
La1      0.166666667   0.666666667   0.383173129    0   0   0
La1      0.666666667   0.666666667   0.383173129    0   0   0
La1      0.833333333   0.333333333   0.500000000    0   0   0
La1      0.333333333   0.333333333   0.500000000    0   0   0
La1      0.833333333   0.833333333   0.500000000    0   0   0
La1      0.333333333   0.833333333   0.500000000    0   0   0
La1     -0.000318668  -0.000001028   0.616771518
La1      0.498483926   0.002976003   0.617251511
La1      0.002385107   0.498791586   0.617142396
La1      0.498188435   0.498220589   0.617341391
C1       0.334347593   0.333413650   0.685674198
H1       0.369229000   0.431223197   0.711746952
H1       0.297539620   0.235379973   0.711737575

     Writing output data file calc.save
     Check: negative starting charge=   -0.830957
     NEW-OLD atomic charge density approx. for the potential
     Check: negative starting charge=   -0.831450

[...]

     energy   old            =   -1262.1771875198 Ry
     energy   new            =   -1262.1867805354 Ry

     CASE: energy  _new < energy  _old

[...]

     iteration #  9     ecut=    36.75 Ry     beta=0.30
     Davidson diagonalization with overlap
     c_bands:  1 eigenvalues not converged
     ethr =  2.96E-10,  avg # of iterations =  9.0

[...]

     Threshold (ethr) on eigenvalues was too large:
     Diagonalizing with lowered threshold

     Davidson diagonalization with overlap
     ethr =  2.88E-08,  avg # of iterations =  8.1

[...]

     Total force =     0.005520     Total SCF correction =     0.000556
     SCF correction compared to forces is large: reduce conv_thr to get better values

[...]

     Threshold (ethr) on eigenvalues was too large:
     Diagonalizing with lowered threshold

     Davidson diagonalization with overlap
     ethr =  8.15E-08,  avg # of iterations =  8.2

[...]

     number of scf cycles    =  18
     number of bfgs steps    =  17

     energy   old            =   -1262.2140833545 Ry
     energy   new            =   -1262.2141624300 Ry

     CASE: energy  _new < energy  _old

     new trust radius        =       0.0372986370 bohr
     new conv_thr            =       0.0000001000 Ry

ATOMIC_POSITIONS (crystal)
La1      0.166666667   0.166666667   0.383173129    0   0   0
La1      0.666666667   0.166666667   0.383173129    0   0   0
La1      0.166666667   0.666666667   0.383173129    0   0   0
La1      0.666666667   0.666666667   0.383173129    0   0   0
La1      0.833333333   0.333333333   0.500000000    0   0   0
La1      0.333333333   0.333333333   0.500000000    0   0   0
La1      0.833333333   0.833333333   0.500000000    0   0   0
La1      0.333333333   0.833333333   0.500000000    0   0   0
La1     -0.012852340   0.002360627   0.612827476
La1      0.482690337   0.021713227   0.623224819
La1      0.011551851   0.493485366   0.618845981
La1      0.484410216   0.491481931   0.622469428
C1       0.359027938   0.323337748   0.682854537
H1       0.366624432   0.433152385   0.710130494
H1       0.311754237   0.230998311   0.706821911

     Writing output data file calc.save
     Check: negative starting charge=   -0.833010
     NEW-OLD atomic charge density approx. for the potential
     Check: negative starting charge=   -0.833255

[...]

     Self-consistent Calculation

[...]

     total energy              =   -1262.21423155 Ry
     Harris-Foulkes estimate   =   -1262.21423157 Ry
     estimated scf accuracy    <       0.00000011 Ry

     iteration # 12     ecut=    36.75 Ry     beta=0.30
     Davidson diagonalization with overlap
     ethr =  7.78E-11,  avg # of iterations =  7.7

[...]

     negative rho (up, down):  5.862E-01 0.000E+00

     Adding external electric field

     Computed dipole along edir(3) :
        Dipole               -0.0545 Ry au,         -0.1386 Debye
        Dipole field         -0.0001 Ry au

        Potential amp.        0.0077 Ry
        Total length         48.0849 bohr

     End of self-consistent calculation

[...]

          k = 0.0446-0.0515 0.0000 ( 31991 PWs)   bands (ev):

[...]

          k =-0.0669-0.0387 0.0000 ( 31970 PWs)   bands (ev):

   -31.3594 -31.3589 -31.3435 -31.2920 -31.2920 -31.2795 -31.1755 -31.1476
   -30.9390 -30.9139 -30.8697 -30.8520 -15.4451 -15.3245 -15.3076 -15.2636
   -15.2482 -15.2209 -15.1481 -15.1153 -15.1092 -15.0683 -15.0438 -15.0037
   -14.9756 -14.9685 -14.9504 -14.9118 -14.8834 -14.8673 -14.8179 -14.6898
   -14.6677 -14.6581 -14.5584 -14.5574 -14.5341 -14.5146 -14.4970 -14.4710
   -14.4539 -14.4098 -14.3584 -14.3241 -14.3085 -14.3059 -14.1527 -14.1399
   -10.0425  -4.4517  -1.4869   0.0479   0.3366   0.3873   0.7733   0.8606
     1.0608   1.1224   1.1869   1.2103   1.2255   1.3009   1.5540   1.5875
     1.7242   1.7659   1.8030   1.8863   2.0038   2.0766   2.0987   2.1290
     2.1664   2.2348   2.2995   2.3924   2.4259   2.5083   2.5348

     the Fermi energy is     1.9349 ev

!    total energy              =   -1262.21423157 Ry
     Harris-Foulkes estimate   =   -1262.21423151 Ry
     estimated scf accuracy    <       0.00000003 Ry

     The total energy is the sum of the following terms:

     one-electron contribution =   -4756.41093230 Ry
     hartree contribution      =    2391.94655458 Ry
     xc contribution           =    -613.83783198 Ry
     ewald contribution        =    1716.21266036 Ry
     electric field correction =       0.00000439 Ry
     smearing contrib. (-TS)   =      -0.12468663 Ry

     convergence has been achieved in  12 iterations

 BEEF-vdW xc energy contributions
           1 :   -543.737578191816
           2 :    500.156420564854
           3 :   -423.084902449940
           4 :    328.952255392001
           5 :   -235.204437805241
           6 :    155.663081998616
           7 :   -97.9124280609149
           8 :    62.9939758301994
           9 :   -46.8975440469151
          10 :    42.9348306845916
          11 :   -44.0989722868972
          12 :    44.7684122839541
          13 :   -41.5260478646934
          14 :    33.2337526740896
          15 :   -20.6788677068434
          16 :    6.02794000736640
          17 :    7.84042690433057
          18 :   -18.1276413432596
          19 :    22.9383140812804
          20 :   -21.9016627040527
          21 :    16.3255624198716
          22 :   -8.76307797914694
          23 :    2.10911925529308
          24 :    1.43349124467500
          25 :   -1.09905147563188
          26 :   -2.29920494021894
          27 :    6.87403696372996
          28 :   -10.5621683550036
          29 :    11.9901344791906
          30 :   -10.9359369651330
          31 :   -46.3740218517214
          32 :   -33.2947687644157

     Forces acting on atoms (Ry/au):

     negative rho (up, down):  5.862E-01 0.000E+00
     atom    1 type  1   force =    -0.00081090   -0.00060008    0.00483470
     atom    2 type  1   force =     0.00033973   -0.00010770    0.00365930
     atom    3 type  1   force =     0.00009721    0.00068088    0.00464346
     atom    4 type  1   force =    -0.00094941    0.00031429    0.00434577
     atom    5 type  1   force =     0.00044831    0.00068202   -0.00504747
     atom    6 type  1   force =    -0.00040996    0.00029882   -0.00511907
     atom    7 type  1   force =    -0.00099371   -0.00044730   -0.00545802
     atom    8 type  1   force =     0.00082139    0.00016994   -0.00206789
     atom    9 type  1   force =     0.00045452    0.00033742    0.00083854
     atom   10 type  1   force =     0.00061430   -0.00067062   -0.00136440
     atom   11 type  1   force =    -0.00114856    0.00120980   -0.00068250
     atom   12 type  1   force =    -0.00122857   -0.00086073    0.00061000
     atom   13 type  2   force =     0.00099227   -0.00075017   -0.00024932
     atom   14 type  3   force =     0.00033345    0.00137006    0.00025972
     atom   15 type  3   force =     0.00143993   -0.00162662    0.00079719

     Total force =     0.004313     Total SCF correction =     0.000135

     entering subroutine stress ...

     negative rho (up, down):  5.862E-01 0.000E+00
          total   stress  (Ry/bohr**3)                   (kbar)     P=   -0.31
   0.00000279  -0.00000228   0.00000316          0.41     -0.34      0.46
  -0.00000228   0.00000305  -0.00000129         -0.34      0.45     -0.19
   0.00000316  -0.00000129  -0.00001218          0.46     -0.19     -1.79

     bfgs converged in  19 scf cycles and  18 bfgs steps
     (criteria: energy <  1.0E+00, force <  1.9E-03)

     End of BFGS Geometry Optimization

     Final energy   =   -1262.2142315698 Ry
Begin final coordinates

ATOMIC_POSITIONS (crystal)
La1      0.166666667   0.166666667   0.383173129    0   0   0
La1      0.666666667   0.166666667   0.383173129    0   0   0
La1      0.166666667   0.666666667   0.383173129    0   0   0
La1      0.666666667   0.666666667   0.383173129    0   0   0
La1      0.833333333   0.333333333   0.500000000    0   0   0
La1      0.333333333   0.333333333   0.500000000    0   0   0
La1      0.833333333   0.833333333   0.500000000    0   0   0
La1      0.333333333   0.833333333   0.500000000    0   0   0
La1     -0.012852340   0.002360627   0.612827476
La1      0.482690337   0.021713227   0.623224819
La1      0.011551851   0.493485366   0.618845981
La1      0.484410216   0.491481931   0.622469428
C1       0.359027938   0.323337748   0.682854537
H1       0.366624432   0.433152385   0.710130494
H1       0.311754237   0.230998311   0.706821911
End final coordinates

     Writing output data file calc.save

     General routines

     Parallel routines

   This run was terminated on:   1:52:23  19Apr2018

   JOB DONE.