     Program PWSCF v.5.1rc2 (svn rev. 11289) starts on  3May2018 at 11:55:59

     Current dimensions of program PWSCF are:
     Max number of different atomic species (ntypx) = 10
     Max number of k-points (npk) =  40000
     Max angular momentum in pseudopotentials (lmaxx) =  3
     Presently stress not available with electric field

     IMPORTANT: XC functional enforced from input :
     Exchange-correlation      = BEEF-VDW ( 1  4 27 13 2)
     Any further DFT definition will be discarded
     Please, verify this is what you really want

     Subspace diagonalization in iterative solution of the eigenvalue problem:
     a serial algorithm will be used

     bravais-lattice index     =            0
     lattice parameter (alat)  =       1.8897  a.u.
     unit-cell volume          =    8507.0471 (a.u.)^3
     number of atoms/cell      =           13
     number of atomic types    =            2
     number of electrons       =       138.00
     number of Kohn-Sham states=           79
     kinetic-energy cutoff     =      36.7493  Ry
     charge density cutoff     =     367.4932  Ry
     convergence threshold     =      1.0E-05
     mixing beta               =       0.3000
     number of iterations used =           10  plain     mixing
     Exchange-correlation      = BEEF-VDW ( 1  4 27 13 2)
     nstep                     =           50

     celldm(1)=   1.889726  celldm(2)=   0.000000  celldm(3)=   0.000000
     celldm(4)=   0.000000  celldm(5)=   0.000000  celldm(6)=   0.000000

     crystal axes: (cart. coord. in units of alat)
               a(1) = (   7.468327   0.000000   0.000000 )
               a(2) = (   3.734164   6.467761   0.000000 )
               a(3) = (   0.000000   0.000000  26.097863 )

     reciprocal axes: (cart. coord. in units 2 pi/alat)
               b(1) = (  0.133899 -0.077307  0.000000 )
               b(2) = (  0.000000  0.154613  0.000000 )
               b(3) = (  0.000000  0.000000  0.038317 )

     PseudoPot. # 1 for La read from file:
     /u/if/mamunm/psp/gbrv1.5pbe/La.UPF
     MD5 check sum: 5937b0c7494ba0601a847275249473aa
     Pseudo is Ultrasoft + core correction, Zval = 11.0
     Generated by new atomic code, or converted to UPF format
     Using radial grid of  995 points,  8 beta functions with:
                l(1) =   0
                l(2) =   0
                l(3) =   1
                l(4) =   1
                l(5) =   2
                l(6) =   2
                l(7) =   3
                l(8) =   3
     Q(r) pseudized with  8 coefficients,  rinner =    1.700   1.700   1.700
                                                       1.700   1.700   1.700
                                                       1.700

     PseudoPot. # 2 for S  read from file:
     /u/if/mamunm/psp/gbrv1.5pbe/S.UPF
     MD5 check sum: 88d86576ff6df21479756cfb9bdac1df
     Pseudo is Ultrasoft + core correction, Zval =  6.0
     Generated by new atomic code, or converted to UPF format
     Using radial grid of  907 points,  6 beta functions with:
                l(1) =   0
                l(2) =   0
                l(3) =   1
                l(4) =   1
                l(5) =   2
                l(6) =   2
     Q(r) pseudized with  8 coefficients,  rinner =    1.300   1.300   1.300
                                                       1.300   1.300

     vdW kernel table read from file vdW_kernel_table
     MD5 check sum: 095c7af220d748ca6e76c0b4c6cfb241

     atomic species   valence    mass     pseudopotential
        La1           11.00   138.90547     La( 1.00)
        S1             6.00    32.06000     S ( 1.00)

     No symmetry found

   Cartesian axes

     site n.     atom                  positions (alat units)
         1           La1 tau(   1) = (   1.8670818   1.0779602  10.0000000  )
         2           La1 tau(   2) = (   5.6012453   1.0779602  10.0000000  )
         3           La1 tau(   3) = (   3.7341635   4.3118406  10.0000000  )
         4           La1 tau(   4) = (   7.4683270   4.3118406  10.0000000  )
         5           La1 tau(   5) = (   7.4683270   2.1559203  13.0489317  )
         6           La1 tau(   6) = (   3.7341635   2.1559203  13.0489317  )
         7           La1 tau(   7) = (   9.3354088   5.3898008  13.0489317  )
         8           La1 tau(   8) = (   5.6012453   5.3898008  13.0489317  )
         9           La1 tau(   9) = (   0.0000000   0.0000000  16.0978635  )
        10           La1 tau(  10) = (   3.7341635   0.0000000  16.0978635  )
        11           La1 tau(  11) = (   1.8670818   3.2338805  16.0978635  )
        12           La1 tau(  12) = (   5.6012453   3.2338805  16.0978635  )
        13           S1  tau(  13) = (   0.0000000   0.0000000  18.7498635  )

     number of k points=    20  Fermi-Dirac smearing, width (Ry)=  0.0110
                       cart. coord. in units 2pi/alat
        k(    1) = (   0.0000000   0.0000000   0.0000000), wk =   0.0555556
        k(    2) = (   0.0000000   0.0257688   0.0000000), wk =   0.1111111
        k(    3) = (   0.0000000   0.0515377   0.0000000), wk =   0.1111111
        k(    4) = (   0.0000000  -0.0773065   0.0000000), wk =   0.0555556
        k(    5) = (   0.0223165  -0.0128844   0.0000000), wk =   0.1111111
        k(    6) = (   0.0223165   0.0128844   0.0000000), wk =   0.1111111
        k(    7) = (   0.0223165   0.0386533   0.0000000), wk =   0.1111111
        k(    8) = (   0.0223165  -0.0901909   0.0000000), wk =   0.1111111
        k(    9) = (   0.0223165  -0.0644221   0.0000000), wk =   0.1111111
        k(   10) = (   0.0223165  -0.0386533   0.0000000), wk =   0.1111111
        k(   11) = (   0.0446329  -0.0257688   0.0000000), wk =   0.1111111
        k(   12) = (   0.0446329   0.0000000   0.0000000), wk =   0.1111111
        k(   13) = (   0.0446329   0.0257688   0.0000000), wk =   0.1111111
        k(   14) = (   0.0446329  -0.1030753   0.0000000), wk =   0.1111111
        k(   15) = (   0.0446329  -0.0773065   0.0000000), wk =   0.1111111
        k(   16) = (   0.0446329  -0.0515377   0.0000000), wk =   0.1111111
        k(   17) = (  -0.0669494   0.0386533   0.0000000), wk =   0.0555556
        k(   18) = (  -0.0669494   0.0644221   0.0000000), wk =   0.1111111
        k(   19) = (  -0.0669494   0.0901909   0.0000000), wk =   0.1111111
        k(   20) = (  -0.0669494  -0.0386533   0.0000000), wk =   0.0555556

     Largest allocated arrays     est. size (Mb)     dimensions
     Largest temporary arrays     est. size (Mb)     dimensions

     Initial potential from superposition of free atoms
     Check: negative starting charge=   -0.830920

     starting charge  137.61514, renormalised to  138.00000

     negative rho (up, down):  8.332E-01 0.000E+00

     *
     * You are using vdW-DF for exchange-correlation in this calculation.
     * Please cite the following three references that made this development
     * possible:
     *
     *   M. Dion, H. Rydberg, E. Schroder, D. C. Langreth, and
     *   B. I. Lundqvist, Phys. Rev. Lett. 92, 246401 (2004).
     *
     *   T. Thonhauser, V. R. Cooper, S. Li, A. Puzder, P. Hyldgaard, and
     *   D. C. Langreth, Phys. Rev. B 76, 125112 (2007).
     *
     *   G. Roman-Perez and J. M. Soler, Phys. Rev. Lett. 103, 096102 (2009).
     *
     *
     * If you are using vdW-DF2, please also cite:
     *
     *   K. Lee, E. D. Murray, L. Kong, B. I. Lundqvist, and
     *   D. C. Langreth, Phys. Rev. B 82, 081101(R) (2010).
     *
     *
     * If you are calculating the stress with vdW-DF, please also cite:
     *
     *   R. Sabatini, E. Kucukbenli, B. Kolb, T. Thonhauser, and
     *   S. de Gironcoli, J. Phys.: Condens. Matter 24, 424209 (2012).
     *

     Carrying out vdW-DF run using the following parameters:

     Nqs =      20    Nr_points =    1024   r_max =   100.000
     q_mesh =
               0.00001000     0.04494208     0.09755937     0.15916263
               0.23128650     0.31572767     0.41458969     0.53033537
               0.66584808     0.82450364     1.01025438     1.22772762
               1.48234092     1.78043706     2.12944203     2.53805004
               3.01644009     3.57652955     4.23227104     5.00000000

     Gradients computed in reciprocal space

     Adding external electric field

     Computed dipole along edir(3) :
        Dipole               -0.1804 Ry au,         -0.4585 Debye
        Dipole field         -0.0003 Ry au

        Potential amp.        0.0256 Ry
        Total length         48.0849 bohr

     Starting wfc are  244 randomized atomic wfcs

     Self-consistent Calculation

     iteration #  1     ecut=    36.75 Ry     beta=0.30
     Davidson diagonalization with overlap
     ethr =  1.00E-02,  avg # of iterations =  2.0

[...]

     total energy              =   -1270.12431747 Ry
     Harris-Foulkes estimate   =   -1273.38332066 Ry
     estimated scf accuracy    <       6.81711568 Ry

[...]

     iteration # 10     ecut=    36.75 Ry     beta=0.30
     Davidson diagonalization with overlap
     c_bands:  1 eigenvalues not converged
     ethr =  3.81E-05,  avg # of iterations =  5.8

[...]

     End of self-consistent calculation

          k = 0.0000 0.0000 0.0000 ( 31997 PWs)   bands (ev):

   -32.1159 -32.0140 -32.0140 -32.0125 -31.8835 -31.8834 -31.8735 -31.5679
   -31.4512 -31.4512 -31.4157 -31.2696 -16.1830 -16.1081 -16.1080 -16.0736
   -16.0328 -16.0328 -16.0055 -15.9015 -15.9015 -15.8451 -15.7185 -15.5919
   -15.5918 -15.4089 -15.3975 -15.3664 -15.3664 -15.2709 -15.2709 -15.2709
   -15.2417 -15.2417 -15.1208 -15.0169 -15.0169 -14.9740 -14.9739 -14.9154
   -14.8577 -14.8577 -14.8470 -14.8273 -14.7383 -14.7383 -14.6064 -14.6064
    -9.2818  -1.4500  -0.7218  -0.3832  -0.3783  -0.3782  -0.3063  -0.1769
    -0.1384  -0.1384   0.0724   0.1196   0.1196   0.1850   0.2036   0.2036
     0.3865   0.3865   0.5087   1.0446   1.3564   1.3564   1.5501   1.8961
     2.0450   2.0451   2.1302   2.2152   2.4364   2.5223   2.5228

[...]

          k =-0.0669 0.0387 0.0000 ( 31970 PWs)   bands (ev):

[...]

     the Fermi energy is     1.3475 ev

!    total energy              =   -1272.69192373 Ry
     Harris-Foulkes estimate   =   -1272.69198210 Ry
     estimated scf accuracy    <       0.00000617 Ry

     The total energy is the sum of the following terms:

     one-electron contribution =   -4697.51293286 Ry
     hartree contribution      =    2360.37983986 Ry
     xc contribution           =    -617.26838865 Ry
     ewald contribution        =    1681.82692097 Ry
     electric field correction =       0.00139874 Ry
     smearing contrib. (-TS)   =      -0.11876180 Ry

     convergence has been achieved in  20 iterations

 BEEF-vdW xc energy contributions
           1 :   -546.667277284010
           2 :    502.591439554280
           3 :   -424.716499181465
           4 :    329.701954507963
           5 :   -235.180044673810
           6 :    155.106827283257
           7 :   -97.1415876028176
           8 :    62.3072542721559
           9 :   -46.4635064698811
          10 :    42.7380122987709
          11 :   -43.9885390018578
          12 :    44.5694412473867
          13 :   -41.1393557273639
          14 :    32.6808205043646
          15 :   -20.0866979446399
          16 :    5.56540461357349
          17 :    8.04922543901580
          18 :   -18.0656164543806
          19 :    22.6941832156273
          20 :   -21.6118606121717
          21 :    16.1022859701369
          22 :   -8.64998997592329
          23 :    2.08038394425444
          24 :    1.44053388770203
          25 :   -1.14008001047705
          26 :   -2.20595348977258
          27 :    6.75062835855761
          28 :   -10.4496726673603
          29 :    11.9210581576025
          30 :   -10.9189923077694
          31 :   -46.6625541519309
          32 :   -33.4466290479400

     Forces acting on atoms (Ry/au):

     negative rho (up, down):  5.848E-01 0.000E+00
     atom    1 type  1   force =    -0.00035347   -0.00017936    0.00429195
     atom    2 type  1   force =     0.00034837   -0.00019112    0.00428845
     atom    3 type  1   force =    -0.00000902    0.00038875    0.00429855
     atom    4 type  1   force =     0.00000438   -0.00001470    0.00418513
     atom    5 type  1   force =     0.00000074    0.00524726   -0.00630147
     atom    6 type  1   force =     0.00000027    0.00000500   -0.00165746
     atom    7 type  1   force =    -0.00454401   -0.00262802   -0.00630418
     atom    8 type  1   force =     0.00454697   -0.00262593   -0.00630361
     atom    9 type  1   force =     0.00000999    0.00000863    0.02600963
     atom   10 type  1   force =    -0.00000362   -0.00068640    0.01086755
     atom   11 type  1   force =    -0.00060177    0.00033587    0.01084599
     atom   12 type  1   force =     0.00060037    0.00033998    0.01085973
     atom   13 type  2   force =     0.00000079    0.00000004   -0.05508025

     Total force =     0.063761     Total SCF correction =     0.001960

     entering subroutine stress ...

     negative rho (up, down):  5.848E-01 0.000E+00
          total   stress  (Ry/bohr**3)                   (kbar)     P=   -2.48
  -0.00000325   0.00000000   0.00000000         -0.48      0.00      0.00
   0.00000000  -0.00000325  -0.00000000          0.00     -0.48     -0.00
   0.00000000  -0.00000000  -0.00004399          0.00     -0.00     -6.47

     BFGS Geometry Optimization

     number of scf cycles    =   1
     number of bfgs steps    =   0

     energy   new            =   -1272.6919237346 Ry

     new trust radius        =       0.0550802544 bohr
     new conv_thr            =       0.0000099958 Ry

ATOMIC_POSITIONS (crystal)
La1      0.166666667   0.166666667   0.383173129    0   0   0
La1      0.666666667   0.166666667   0.383173129    0   0   0
La1      0.166666667   0.666666667   0.383173129    0   0   0
La1      0.666666667   0.666666667   0.383173129    0   0   0
La1      0.833333333   0.333333333   0.500000000    0   0   0
La1      0.333333333   0.333333333   0.500000000    0   0   0
La1      0.833333333   0.833333333   0.500000000    0   0   0
La1      0.333333333   0.833333333   0.500000000    0   0   0
La1      0.000000355   0.000000706   0.617354259
La1      0.500027823  -0.000056159   0.617047229
La1     -0.000056379   0.500027480   0.617046791
La1      0.500028632   0.500027816   0.617047070
S1       0.000000055   0.000000003   0.717327542

     Writing output data file calc.save
     Check: negative starting charge=   -0.830920
     NEW-OLD atomic charge density approx. for the potential
     Check: negative starting charge=   -0.831424

[...]

     energy   old            =   -1272.6919237346 Ry
     energy   new            =   -1272.6955326532 Ry

     CASE: energy  _new < energy  _old

[...]

     number of scf cycles    =  10
     number of bfgs steps    =   9

     energy   old            =   -1272.7124544903 Ry
     energy   new            =   -1272.7127373051 Ry

     CASE: energy  _new < energy  _old

     new trust radius        =       0.0269073694 bohr
     new conv_thr            =       0.0000001000 Ry

ATOMIC_POSITIONS (crystal)
La1      0.166666667   0.166666667   0.383173129    0   0   0
La1      0.666666667   0.166666667   0.383173129    0   0   0
La1      0.166666667   0.666666667   0.383173129    0   0   0
La1      0.666666667   0.666666667   0.383173129    0   0   0
La1      0.833333333   0.333333333   0.500000000    0   0   0
La1      0.333333333   0.333333333   0.500000000    0   0   0
La1      0.833333333   0.833333333   0.500000000    0   0   0
La1      0.333333333   0.833333333   0.500000000    0   0   0
La1      0.000002197   0.000001522   0.606375973
La1      0.500606792  -0.001211836   0.624414469
La1     -0.001212506   0.500605691   0.624412367
La1      0.500608029   0.500604886   0.624414416
S1      -0.000000658   0.000000446   0.703471577

     Writing output data file calc.save
     Check: negative starting charge=   -0.833510
     NEW-OLD atomic charge density approx. for the potential
     Check: negative starting charge=   -0.832906

[...]

     Self-consistent Calculation

[...]

     iteration #  3     ecut=    36.75 Ry     beta=0.30
     Davidson diagonalization with overlap
     c_bands:  1 eigenvalues not converged
     ethr =  2.51E-07,  avg # of iterations = 14.1

[...]

     total energy              =   -1272.71283696 Ry
     Harris-Foulkes estimate   =   -1272.71283710 Ry
     estimated scf accuracy    <       0.00000014 Ry

     iteration # 12     ecut=    36.75 Ry     beta=0.30
     Davidson diagonalization with overlap
     ethr =  1.00E-10,  avg # of iterations =  8.9

[...]

     negative rho (up, down):  5.825E-01 0.000E+00

     Adding external electric field

     Computed dipole along edir(3) :
        Dipole               -0.5582 Ry au,         -1.4189 Debye
        Dipole field         -0.0008 Ry au

        Potential amp.        0.0793 Ry
        Total length         48.0849 bohr

     End of self-consistent calculation

[...]

          k = 0.0446-0.0515 0.0000 ( 31991 PWs)   bands (ev):

[...]

          k =-0.0669-0.0387 0.0000 ( 31970 PWs)   bands (ev):

   -31.8938 -31.8628 -31.8298 -31.6374 -31.6320 -31.5704 -31.5638 -31.2517
   -31.2446 -31.1859 -31.1776 -30.9035 -15.7705 -15.6238 -15.6168 -15.5882
   -15.5733 -15.5661 -15.5045 -15.5015 -15.4926 -15.4350 -15.4195 -15.3996
   -15.3733 -15.3420 -15.3037 -15.2652 -15.2456 -15.2010 -15.1558 -15.0373
   -15.0196 -14.9865 -14.8573 -14.8509 -14.8351 -14.8287 -14.8248 -14.8040
   -14.7495 -14.7119 -14.6666 -14.5178 -14.5002 -14.4660 -14.4482 -14.3510
    -9.4418  -0.5931  -0.5228  -0.3720   0.0398   0.1364   0.4924   0.5453
     0.7871   0.8239   0.9011   0.9191   0.9585   1.0407   1.3141   1.3518
     1.4324   1.4873   1.5506   1.5895   1.7242   1.8064   1.8215   1.8440
     1.9277   2.0202   2.0690   2.0855   2.1222   2.2732   2.2761

     the Fermi energy is     1.6555 ev

!    total energy              =   -1272.71283695 Ry
     Harris-Foulkes estimate   =   -1272.71283590 Ry
     estimated scf accuracy    <       0.00000004 Ry

     The total energy is the sum of the following terms:

     one-electron contribution =   -4691.15082109 Ry
     hartree contribution      =    2358.24862268 Ry
     xc contribution           =    -617.29510658 Ry
     ewald contribution        =    1677.60315475 Ry
     electric field correction =       0.00046030 Ry
     smearing contrib. (-TS)   =      -0.11914702 Ry

     convergence has been achieved in  12 iterations

 BEEF-vdW xc energy contributions
           1 :   -546.690599024073
           2 :    502.615521278845
           3 :   -424.740166047607
           4 :    329.736965905637
           5 :   -235.246925980842
           6 :    155.209909232814
           7 :   -97.2551958398283
           8 :    62.3860254263307
           9 :   -46.4694198259838
          10 :    42.6654851257697
          11 :   -43.8699595082107
          12 :    44.4567013732205
          13 :   -41.0729556005796
          14 :    32.6664935195058
          15 :   -20.0936903412728
          16 :    5.54759198172042
          17 :    8.12150221859019
          18 :   -18.1839113351780
          19 :    22.8156593916358
          20 :   -21.6865538731952
          21 :    16.1059165127940
          22 :   -8.59936174649988
          23 :    2.02092168411377
          24 :    1.46605314799513
          25 :   -1.12005942003429
          26 :   -2.24590053110614
          27 :    6.76792900086662
          28 :   -10.4169939281716
          29 :    11.8476984535266
          30 :   -10.8457230309346
          31 :   -46.6627923483037
          32 :   -33.4486030992317

     Forces acting on atoms (Ry/au):

     negative rho (up, down):  5.825E-01 0.000E+00
     atom    1 type  1   force =    -0.00040973   -0.00023654    0.00518931
     atom    2 type  1   force =     0.00040975   -0.00023654    0.00518959
     atom    3 type  1   force =     0.00000027    0.00047281    0.00518965
     atom    4 type  1   force =     0.00000020   -0.00000010    0.00405324
     atom    5 type  1   force =    -0.00000059    0.01318094   -0.00787698
     atom    6 type  1   force =     0.00000028    0.00000037    0.00947407
     atom    7 type  1   force =    -0.01141492   -0.00659015   -0.00787690
     atom    8 type  1   force =     0.01141509   -0.00659102   -0.00787574
     atom    9 type  1   force =    -0.00000161   -0.00000165   -0.00104746
     atom   10 type  1   force =     0.00000107    0.00046899   -0.00113002
     atom   11 type  1   force =     0.00040775   -0.00023349   -0.00112769
     atom   12 type  1   force =    -0.00040705   -0.00023414   -0.00113116
     atom   13 type  2   force =    -0.00000051    0.00000051   -0.00102991

     Total force =     0.002578     Total SCF correction =     0.000219

     entering subroutine stress ...

     negative rho (up, down):  5.825E-01 0.000E+00
          total   stress  (Ry/bohr**3)                   (kbar)     P=   -2.17
  -0.00001303   0.00000000  -0.00000000         -1.92      0.00     -0.00
   0.00000000  -0.00001303   0.00000000          0.00     -1.92      0.00
  -0.00000000   0.00000000  -0.00001827         -0.00      0.00     -2.69

     bfgs converged in  11 scf cycles and  10 bfgs steps
     (criteria: energy <  1.0E+00, force <  1.9E-03)

     End of BFGS Geometry Optimization

     Final energy   =   -1272.7128369513 Ry
Begin final coordinates

ATOMIC_POSITIONS (crystal)
La1      0.166666667   0.166666667   0.383173129    0   0   0
La1      0.666666667   0.166666667   0.383173129    0   0   0
La1      0.166666667   0.666666667   0.383173129    0   0   0
La1      0.666666667   0.666666667   0.383173129    0   0   0
La1      0.833333333   0.333333333   0.500000000    0   0   0
La1      0.333333333   0.333333333   0.500000000    0   0   0
La1      0.833333333   0.833333333   0.500000000    0   0   0
La1      0.333333333   0.833333333   0.500000000    0   0   0
La1      0.000002197   0.000001522   0.606375973
La1      0.500606792  -0.001211836   0.624414469
La1     -0.001212506   0.500605691   0.624412367
La1      0.500608029   0.500604886   0.624414416
S1      -0.000000658   0.000000446   0.703471577
End final coordinates

     Writing output data file calc.save

     General routines

     Parallel routines

   This run was terminated on:  16:38:32   3May2018

   JOB DONE.
Job  /afs/slac/g/suncat/bin/suncat-tsmpirun -x LD_LIBRARY_PATH -wdir /scratch/qe754846_0IRpJ pw.x -npool 4 -in pw.inp

TID   HOST_NAME   COMMAND_LINE            STATUS            TERMINATION_TIME
00000 suncat0057 pw.x -npool 4 -i  Done                     05/03/2018 16:38:32
00001 suncat0057 pw.x -npool 4 -i  Done                     05/03/2018 16:38:32
00002 suncat0057 pw.x -npool 4 -i  Done                     05/03/2018 16:38:32
00003 suncat0057 pw.x -npool 4 -i  Done                     05/03/2018 16:38:32
00004 suncat0057 pw.x -npool 4 -i  Done                     05/03/2018 16:38:32
00005 suncat0057 pw.x -npool 4 -i  Done                     05/03/2018 16:38:32
00006 suncat0057 pw.x -npool 4 -i  Done                     05/03/2018 16:38:32
00007 suncat0057 pw.x -npool 4 -i  Done                     05/03/2018 16:38:32
00008 suncat0036 pw.x -npool 4 -i  Done                     05/03/2018 16:38:32
00009 suncat0036 pw.x -npool 4 -i  Done                     05/03/2018 16:38:32
00010 suncat0036 pw.x -npool 4 -i  Done                     05/03/2018 16:38:32
00011 suncat0036 pw.x -npool 4 -i  Done                     05/03/2018 16:38:32
00012 suncat0036 pw.x -npool 4 -i  Done                     05/03/2018 16:38:32
00013 suncat0036 pw.x -npool 4 -i  Done                     05/03/2018 16:38:32
00014 suncat0036 pw.x -npool 4 -i  Done                     05/03/2018 16:38:32
00015 suncat0036 pw.x -npool 4 -i  Done                     05/03/2018 16:38:32
00016 suncat0156 pw.x -npool 4 -i  Done                     05/03/2018 16:38:32
00017 suncat0156 pw.x -npool 4 -i  Done                     05/03/2018 16:38:32
00018 suncat0156 pw.x -npool 4 -i  Done                     05/03/2018 16:38:32
00019 suncat0156 pw.x -npool 4 -i  Done                     05/03/2018 16:38:32
00020 suncat0156 pw.x -npool 4 -i  Done                     05/03/2018 16:38:32
00021 suncat0156 pw.x -npool 4 -i  Done                     05/03/2018 16:38:32
00022 suncat0156 pw.x -npool 4 -i  Done                     05/03/2018 16:38:32
00023 suncat0156 pw.x -npool 4 -i  Done                     05/03/2018 16:38:32
00024 suncat0280 pw.x -npool 4 -i  Done                     05/03/2018 16:38:32
00025 suncat0280 pw.x -npool 4 -i  Done                     05/03/2018 16:38:32
00026 suncat0280 pw.x -npool 4 -i  Done                     05/03/2018 16:38:32
00027 suncat0280 pw.x -npool 4 -i  Done                     05/03/2018 16:38:32
00028 suncat0280 pw.x -npool 4 -i  Done                     05/03/2018 16:38:32
00029 suncat0280 pw.x -npool 4 -i  Done                     05/03/2018 16:38:32
00030 suncat0280 pw.x -npool 4 -i  Done                     05/03/2018 16:38:32
00031 suncat0280 pw.x -npool 4 -i  Done                     05/03/2018 16:38:32