     Program PWSCF v.5.1rc2 (svn rev. 11289) starts on  3May2018 at 10:32:42

     Current dimensions of program PWSCF are:
     Max number of different atomic species (ntypx) = 10
     Max number of k-points (npk) =  40000
     Max angular momentum in pseudopotentials (lmaxx) =  3
     Presently stress not available with electric field

     IMPORTANT: XC functional enforced from input :
     Exchange-correlation      = BEEF-VDW ( 1  4 27 13 2)
     Any further DFT definition will be discarded
     Please, verify this is what you really want

     Subspace diagonalization in iterative solution of the eigenvalue problem:
     a serial algorithm will be used

     bravais-lattice index     =            0
     lattice parameter (alat)  =       1.8897  a.u.
     unit-cell volume          =    8507.0471 (a.u.)^3
     number of atoms/cell      =           13
     number of atomic types    =            2
     number of electrons       =       133.00
     number of Kohn-Sham states=           76
     kinetic-energy cutoff     =      36.7493  Ry
     charge density cutoff     =     367.4932  Ry
     convergence threshold     =      1.0E-05
     mixing beta               =       0.3000
     number of iterations used =           10  plain     mixing
     Exchange-correlation      = BEEF-VDW ( 1  4 27 13 2)
     nstep                     =           50

     celldm(1)=   1.889726  celldm(2)=   0.000000  celldm(3)=   0.000000
     celldm(4)=   0.000000  celldm(5)=   0.000000  celldm(6)=   0.000000

     crystal axes: (cart. coord. in units of alat)
               a(1) = (   7.468327   0.000000   0.000000 )
               a(2) = (   3.734164   6.467761   0.000000 )
               a(3) = (   0.000000   0.000000  26.097863 )

     reciprocal axes: (cart. coord. in units 2 pi/alat)
               b(1) = (  0.133899 -0.077307  0.000000 )
               b(2) = (  0.000000  0.154613  0.000000 )
               b(3) = (  0.000000  0.000000  0.038317 )

     PseudoPot. # 1 for La read from file:
     /u/if/mamunm/psp/gbrv1.5pbe/La.UPF
     MD5 check sum: 5937b0c7494ba0601a847275249473aa
     Pseudo is Ultrasoft + core correction, Zval = 11.0
     Generated by new atomic code, or converted to UPF format
     Using radial grid of  995 points,  8 beta functions with:
                l(1) =   0
                l(2) =   0
                l(3) =   1
                l(4) =   1
                l(5) =   2
                l(6) =   2
                l(7) =   3
                l(8) =   3
     Q(r) pseudized with  8 coefficients,  rinner =    1.700   1.700   1.700
                                                       1.700   1.700   1.700
                                                       1.700

     PseudoPot. # 2 for H  read from file:
     /u/if/mamunm/psp/gbrv1.5pbe/H.UPF
     MD5 check sum: 761ae9a214b05c3daf00ab9f6b793d6f
     Pseudo is Ultrasoft, Zval =  1.0
     Generated by new atomic code, or converted to UPF format
     Using radial grid of  615 points,  2 beta functions with:
                l(1) =   0
                l(2) =   0
     Q(r) pseudized with  8 coefficients,  rinner =    0.700

     vdW kernel table read from file vdW_kernel_table
     MD5 check sum: 095c7af220d748ca6e76c0b4c6cfb241

     atomic species   valence    mass     pseudopotential
        La1           11.00   138.90547     La( 1.00)
        H1             1.00     1.00800     H ( 1.00)

     No symmetry found

   Cartesian axes

     site n.     atom                  positions (alat units)
         1           La1 tau(   1) = (   1.8670818   1.0779602  10.0000000  )
         2           La1 tau(   2) = (   5.6012453   1.0779602  10.0000000  )
         3           La1 tau(   3) = (   3.7341635   4.3118406  10.0000000  )
         4           La1 tau(   4) = (   7.4683270   4.3118406  10.0000000  )
         5           La1 tau(   5) = (   7.4683270   2.1559203  13.0489317  )
         6           La1 tau(   6) = (   3.7341635   2.1559203  13.0489317  )
         7           La1 tau(   7) = (   9.3354088   5.3898008  13.0489317  )
         8           La1 tau(   8) = (   5.6012453   5.3898008  13.0489317  )
         9           La1 tau(   9) = (   0.0000000   0.0000000  16.0978635  )
        10           La1 tau(  10) = (   3.7341635   0.0000000  16.0978635  )
        11           La1 tau(  11) = (   1.8670818   3.2338805  16.0978635  )
        12           La1 tau(  12) = (   5.6012453   3.2338805  16.0978635  )
        13           H1  tau(  13) = (   0.0000000   0.0000000  18.1208635  )

     number of k points=    20  Fermi-Dirac smearing, width (Ry)=  0.0110
                       cart. coord. in units 2pi/alat
        k(    1) = (   0.0000000   0.0000000   0.0000000), wk =   0.0555556
        k(    2) = (   0.0000000   0.0257688   0.0000000), wk =   0.1111111
        k(    3) = (   0.0000000   0.0515377   0.0000000), wk =   0.1111111
        k(    4) = (   0.0000000  -0.0773065   0.0000000), wk =   0.0555556
        k(    5) = (   0.0223165  -0.0128844   0.0000000), wk =   0.1111111
        k(    6) = (   0.0223165   0.0128844   0.0000000), wk =   0.1111111
        k(    7) = (   0.0223165   0.0386533   0.0000000), wk =   0.1111111
        k(    8) = (   0.0223165  -0.0901909   0.0000000), wk =   0.1111111
        k(    9) = (   0.0223165  -0.0644221   0.0000000), wk =   0.1111111
        k(   10) = (   0.0223165  -0.0386533   0.0000000), wk =   0.1111111
        k(   11) = (   0.0446329  -0.0257688   0.0000000), wk =   0.1111111
        k(   12) = (   0.0446329   0.0000000   0.0000000), wk =   0.1111111
        k(   13) = (   0.0446329   0.0257688   0.0000000), wk =   0.1111111
        k(   14) = (   0.0446329  -0.1030753   0.0000000), wk =   0.1111111
        k(   15) = (   0.0446329  -0.0773065   0.0000000), wk =   0.1111111
        k(   16) = (   0.0446329  -0.0515377   0.0000000), wk =   0.1111111
        k(   17) = (  -0.0669494   0.0386533   0.0000000), wk =   0.0555556
        k(   18) = (  -0.0669494   0.0644221   0.0000000), wk =   0.1111111
        k(   19) = (  -0.0669494   0.0901909   0.0000000), wk =   0.1111111
        k(   20) = (  -0.0669494  -0.0386533   0.0000000), wk =   0.0555556

     Largest allocated arrays     est. size (Mb)     dimensions
     Largest temporary arrays     est. size (Mb)     dimensions

     Initial potential from superposition of free atoms
     Check: negative starting charge=   -0.831074

     starting charge  132.61517, renormalised to  133.00000

     negative rho (up, down):  8.335E-01 0.000E+00

     *
     * You are using vdW-DF for exchange-correlation in this calculation.
     * Please cite the following three references that made this development
     * possible:
     *
     *   M. Dion, H. Rydberg, E. Schroder, D. C. Langreth, and
     *   B. I. Lundqvist, Phys. Rev. Lett. 92, 246401 (2004).
     *
     *   T. Thonhauser, V. R. Cooper, S. Li, A. Puzder, P. Hyldgaard, and
     *   D. C. Langreth, Phys. Rev. B 76, 125112 (2007).
     *
     *   G. Roman-Perez and J. M. Soler, Phys. Rev. Lett. 103, 096102 (2009).
     *
     *
     * If you are using vdW-DF2, please also cite:
     *
     *   K. Lee, E. D. Murray, L. Kong, B. I. Lundqvist, and
     *   D. C. Langreth, Phys. Rev. B 82, 081101(R) (2010).
     *
     *
     * If you are calculating the stress with vdW-DF, please also cite:
     *
     *   R. Sabatini, E. Kucukbenli, B. Kolb, T. Thonhauser, and
     *   S. de Gironcoli, J. Phys.: Condens. Matter 24, 424209 (2012).
     *

     Carrying out vdW-DF run using the following parameters:

     Nqs =      20    Nr_points =    1024   r_max =   100.000
     q_mesh =
               0.00001000     0.04494208     0.09755937     0.15916263
               0.23128650     0.31572767     0.41458969     0.53033537
               0.66584808     0.82450364     1.01025438     1.22772762
               1.48234092     1.78043706     2.12944203     2.53805004
               3.01644009     3.57652955     4.23227104     5.00000000

     Gradients computed in reciprocal space

     Adding external electric field

     Computed dipole along edir(3) :
        Dipole               -0.0277 Ry au,         -0.0705 Debye
        Dipole field         -0.0000 Ry au

        Potential amp.        0.0039 Ry
        Total length         48.0849 bohr

     Starting wfc are  241 randomized atomic wfcs

     Self-consistent Calculation

     iteration #  1     ecut=    36.75 Ry     beta=0.30
     Davidson diagonalization with overlap
     ethr =  1.00E-02,  avg # of iterations =  2.0

[...]

     total energy              =   -1246.61003825 Ry
     Harris-Foulkes estimate   =   -1250.11204676 Ry
     estimated scf accuracy    <       7.36229056 Ry

[...]

     End of self-consistent calculation

          k = 0.0000 0.0000 0.0000 ( 31997 PWs)   bands (ev):

   -31.7038 -31.6700 -31.5990 -31.5988 -31.5414 -31.5413 -31.5309 -31.2331
   -31.1135 -31.1135 -31.1055 -31.0787 -15.8014 -15.7613 -15.7613 -15.7248
   -15.6736 -15.6736 -15.6336 -15.5412 -15.5412 -15.5073 -15.3471 -15.2081
   -15.2080 -15.0703 -15.0151 -15.0151 -14.9922 -14.9287 -14.9287 -14.9272
   -14.8670 -14.8669 -14.8046 -14.6759 -14.6759 -14.6281 -14.6280 -14.5812
   -14.5446 -14.5446 -14.5103 -14.5071 -14.4741 -14.4741 -14.2739 -14.2739
    -1.2020  -0.5853  -0.2509  -0.0076   0.0405   0.0428   0.0428   0.3299
     0.3299   0.3623   0.5259   0.5331   0.5331   0.6521   0.6521   0.7510
     1.3613   1.4472   1.4473   1.8975   2.2129   2.2553   2.2553   2.3989
     2.5512   2.7786   2.8686   2.8811

[...]

          k =-0.0669 0.0387 0.0000 ( 31970 PWs)   bands (ev):

[...]

     the Fermi energy is     1.6833 ev

!    total energy              =   -1249.33558796 Ry
     Harris-Foulkes estimate   =   -1249.33557691 Ry
     estimated scf accuracy    <       0.00000697 Ry

     The total energy is the sum of the following terms:

     one-electron contribution =   -4654.29641582 Ry
     hartree contribution      =    2338.07218547 Ry
     xc contribution           =    -609.27463876 Ry
     ewald contribution        =    1676.28338050 Ry
     electric field correction =       0.00014981 Ry
     smearing contrib. (-TS)   =      -0.12024916 Ry

     convergence has been achieved in  29 iterations

 BEEF-vdW xc energy contributions
           1 :   -539.933927622522
           2 :    496.798643845968
           3 :   -420.433930248448
           4 :    327.052507762284
           5 :   -233.966296502527
           6 :    154.952765198545
           7 :   -97.6052475058747
           8 :    62.9841798857929
           9 :   -47.0785423435823
          10 :    43.1859960644275
          11 :   -44.3030423319241
          12 :    44.8472197281084
          13 :   -41.4643419182574
          14 :    33.0763622590653
          15 :   -20.5069259663204
          16 :    5.92350969176778
          17 :    7.83338496201009
          18 :   -18.0274269553042
          19 :    22.8124718727046
          20 :   -21.8199137889244
          21 :    16.3138900315166
          22 :   -8.79385697323403
          23 :    2.12993132342308
          24 :    1.45885864628031
          25 :   -1.16712935527289
          26 :   -2.22365141085004
          27 :    6.82591077104496
          28 :   -10.5432695863263
          29 :    11.9624531137966
          30 :   -10.8495447297812
          31 :   -45.8195143307554
          32 :   -32.8846050010010

     Forces acting on atoms (Ry/au):

     negative rho (up, down):  5.875E-01 0.000E+00
     atom    1 type  1   force =    -0.00021057   -0.00009158    0.00372218
     atom    2 type  1   force =     0.00019288   -0.00011638    0.00376297
     atom    3 type  1   force =    -0.00003001    0.00021347    0.00379230
     atom    4 type  1   force =     0.00003333   -0.00001421    0.00329587
     atom    5 type  1   force =    -0.00000811    0.00605210   -0.00390659
     atom    6 type  1   force =     0.00003939    0.00004987    0.00023666
     atom    7 type  1   force =    -0.00519618   -0.00305634   -0.00393457
     atom    8 type  1   force =     0.00519164   -0.00305718   -0.00395061
     atom    9 type  1   force =    -0.00002088    0.00000418   -0.03424868
     atom   10 type  1   force =     0.00002106    0.00084012   -0.00102619
     atom   11 type  1   force =     0.00072074   -0.00039844   -0.00104898
     atom   12 type  1   force =    -0.00073096   -0.00042288   -0.00104240
     atom   13 type  2   force =    -0.00000233   -0.00000274    0.03434803

     Total force =     0.048560     Total SCF correction =     0.004747

     entering subroutine stress ...

     negative rho (up, down):  5.875E-01 0.000E+00
          total   stress  (Ry/bohr**3)                   (kbar)     P=   -0.59
  -0.00000610   0.00000000   0.00000000         -0.90      0.00      0.00
   0.00000000  -0.00000609  -0.00000000          0.00     -0.90     -0.00
   0.00000000  -0.00000000   0.00000015          0.00     -0.00      0.02

     BFGS Geometry Optimization

     number of scf cycles    =   1
     number of bfgs steps    =   0

     energy   new            =   -1249.3355879580 Ry

     new trust radius        =       0.0343480283 bohr
     new conv_thr            =       0.0000099958 Ry

ATOMIC_POSITIONS (crystal)
La1      0.166666667   0.166666667   0.383173129    0   0   0
La1      0.666666667   0.166666667   0.383173129    0   0   0
La1      0.166666667   0.666666667   0.383173129    0   0   0
La1      0.666666667   0.666666667   0.383173129    0   0   0
La1      0.833333333   0.333333333   0.500000000    0   0   0
La1      0.333333333   0.333333333   0.500000000    0   0   0
La1      0.833333333   0.833333333   0.500000000    0   0   0
La1      0.333333333   0.833333333   0.500000000    0   0   0
La1     -0.000001651   0.000000342   0.616132423
La1      0.499967124   0.000068737   0.616806063
La1      0.000067369   0.499967401   0.616805601
La1      0.499965507   0.499965401   0.616805735
H1      -0.000000053  -0.000000224   0.695039258

     Writing output data file calc.save
     Check: negative starting charge=   -0.831074
     NEW-OLD atomic charge density approx. for the potential
     Check: negative starting charge=   -0.831364

[...]

     iteration #  2     ecut=    36.75 Ry     beta=0.30
     Davidson diagonalization with overlap
     c_bands:  2 eigenvalues not converged
     ethr =  1.37E-05,  avg # of iterations = 17.4

[...]

     Total force =     0.034647     Total SCF correction =     0.010358
     SCF correction compared to forces is large: reduce conv_thr to get better values

[...]

     energy   old            =   -1249.3355879580 Ry
     energy   new            =   -1249.3376228894 Ry

     CASE: energy  _new < energy  _old

[...]

     iteration #  5     ecut=    36.75 Ry     beta=0.30
     Davidson diagonalization with overlap
     c_bands:  1 eigenvalues not converged
     ethr =  1.74E-07,  avg # of iterations = 11.4

[...]

     number of scf cycles    =   4
     number of bfgs steps    =   3

     energy   old            =   -1249.3391253804 Ry
     energy   new            =   -1249.3401786152 Ry

     CASE: energy  _new < energy  _old

     new trust radius        =       0.0196063028 bohr
     new conv_thr            =       0.0000001000 Ry

ATOMIC_POSITIONS (crystal)
La1      0.166666667   0.166666667   0.383173129    0   0   0
La1      0.666666667   0.166666667   0.383173129    0   0   0
La1      0.166666667   0.666666667   0.383173129    0   0   0
La1      0.666666667   0.666666667   0.383173129    0   0   0
La1      0.833333333   0.333333333   0.500000000    0   0   0
La1      0.333333333   0.333333333   0.500000000    0   0   0
La1      0.833333333   0.833333333   0.500000000    0   0   0
La1      0.333333333   0.833333333   0.500000000    0   0   0
La1     -0.000002469  -0.000000126   0.614025231
La1      0.499786227   0.000432265   0.616659981
La1      0.000431593   0.499786497   0.616659234
La1      0.499783093   0.499783377   0.616659838
H1      -0.000000100  -0.000000399   0.697352081

     Writing output data file calc.save
     Check: negative starting charge=   -0.830848
     NEW-OLD atomic charge density approx. for the potential
     Check: negative starting charge=   -0.830993

[...]

     Self-consistent Calculation

[...]

     Threshold (ethr) on eigenvalues was too large:
     Diagonalizing with lowered threshold

     Davidson diagonalization with overlap
     ethr =  9.77E-08,  avg # of iterations = 10.2

[...]

     total energy              =   -1249.34025911 Ry
     Harris-Foulkes estimate   =   -1249.34025905 Ry
     estimated scf accuracy    <       0.00000041 Ry

     iteration #  9     ecut=    36.75 Ry     beta=0.30
     Davidson diagonalization with overlap
     ethr =  3.12E-10,  avg # of iterations =  4.5

[...]

     negative rho (up, down):  5.869E-01 0.000E+00

     Adding external electric field

     Computed dipole along edir(3) :
        Dipole               -0.3459 Ry au,         -0.8791 Debye
        Dipole field         -0.0005 Ry au

        Potential amp.        0.0491 Ry
        Total length         48.0849 bohr

     End of self-consistent calculation

[...]

          k = 0.0446-0.0515 0.0000 ( 31991 PWs)   bands (ev):

[...]

          k =-0.0669-0.0387 0.0000 ( 31970 PWs)   bands (ev):

   -31.7085 -31.6779 -31.6441 -31.6422 -31.6384 -31.5775 -31.5706 -31.2312
   -31.1903 -31.1694 -31.1353 -31.1205 -15.6564 -15.6058 -15.5808 -15.5457
   -15.5210 -15.5193 -15.4430 -15.4260 -15.3911 -15.3597 -15.3291 -15.3136
   -15.2684 -15.2667 -15.2572 -15.2280 -15.2144 -15.1842 -15.0991 -14.9673
   -14.9502 -14.8928 -14.8464 -14.8413 -14.8369 -14.7852 -14.7600 -14.7452
   -14.7209 -14.6811 -14.5867 -14.5865 -14.5723 -14.4882 -14.4180 -14.4085
    -0.4990   0.0541   0.1709   0.4747   0.5522   0.8103   0.8280   0.8698
     0.8872   0.9294   0.9433   1.2910   1.3114   1.4439   1.4650   1.4798
     1.5139   1.7522   1.7801   1.8473   1.8592   1.8737   1.9143   1.9228
     2.0698   2.1470   2.1853   2.2068

     the Fermi energy is     1.6500 ev

!    total energy              =   -1249.34025904 Ry
     Harris-Foulkes estimate   =   -1249.34026008 Ry
     estimated scf accuracy    <       0.00000007 Ry

     The total energy is the sum of the following terms:

     one-electron contribution =   -4666.59613987 Ry
     hartree contribution      =    2344.10820851 Ry
     xc contribution           =    -609.26195865 Ry
     ewald contribution        =    1682.52911739 Ry
     electric field correction =       0.00017672 Ry
     smearing contrib. (-TS)   =      -0.11966314 Ry

     convergence has been achieved in   9 iterations

 BEEF-vdW xc energy contributions
           1 :   -539.922426539496
           2 :    496.790141946645
           3 :   -420.431469226199
           4 :    327.054759033336
           5 :   -233.965843996610
           6 :    154.942844403168
           7 :   -97.5888328009581
           8 :    62.9751876896736
           9 :   -47.0922694869882
          10 :    43.2269344827939
          11 :   -44.3602135922637
          12 :    44.8996497084847
          13 :   -41.4924580824105
          14 :    33.0728665395084
          15 :   -20.4809178523301
          16 :    5.89493906018038
          17 :    7.84589539571311
          18 :   -18.0171601746586
          19 :    22.7867502911339
          20 :   -21.7935776294203
          21 :    16.2989743130934
          22 :   -8.79183725292069
          23 :    2.13142534559972
          24 :    1.46687940249149
          25 :   -1.19147805789453
          26 :   -2.18820658006427
          27 :    6.79398232430708
          28 :   -10.5293401143044
          29 :    11.9709482678288
          30 :   -10.8714502202520
          31 :   -45.8187038736780
          32 :   -32.8845766358992

     Forces acting on atoms (Ry/au):

     negative rho (up, down):  5.869E-01 0.000E+00
     atom    1 type  1   force =    -0.00008005   -0.00004638    0.00417741
     atom    2 type  1   force =     0.00008037   -0.00004639    0.00417692
     atom    3 type  1   force =     0.00000005    0.00009281    0.00417781
     atom    4 type  1   force =    -0.00000008   -0.00000003    0.00358477
     atom    5 type  1   force =     0.00000019    0.00691567   -0.00544058
     atom    6 type  1   force =    -0.00000028    0.00000007   -0.00004613
     atom    7 type  1   force =    -0.00598889   -0.00345796   -0.00544098
     atom    8 type  1   force =     0.00598888   -0.00345783   -0.00543991
     atom    9 type  1   force =     0.00000194    0.00000041    0.00121502
     atom   10 type  1   force =    -0.00000220    0.00039051   -0.00085454
     atom   11 type  1   force =     0.00033721   -0.00019631   -0.00085308
     atom   12 type  1   force =    -0.00033703   -0.00019429   -0.00085347
     atom   13 type  2   force =    -0.00000010   -0.00000028    0.00159677

     Total force =     0.002582     Total SCF correction =     0.000219

     entering subroutine stress ...

     negative rho (up, down):  5.869E-01 0.000E+00
          total   stress  (Ry/bohr**3)                   (kbar)     P=   -1.22
  -0.00000706   0.00000000  -0.00000000         -1.04      0.00     -0.00
   0.00000000  -0.00000706  -0.00000000          0.00     -1.04     -0.00
  -0.00000000  -0.00000000  -0.00001082         -0.00     -0.00     -1.59

     bfgs converged in   5 scf cycles and   4 bfgs steps
     (criteria: energy <  1.0E+00, force <  1.9E-03)

     End of BFGS Geometry Optimization

     Final energy   =   -1249.3402590418 Ry
Begin final coordinates

ATOMIC_POSITIONS (crystal)
La1      0.166666667   0.166666667   0.383173129    0   0   0
La1      0.666666667   0.166666667   0.383173129    0   0   0
La1      0.166666667   0.666666667   0.383173129    0   0   0
La1      0.666666667   0.666666667   0.383173129    0   0   0
La1      0.833333333   0.333333333   0.500000000    0   0   0
La1      0.333333333   0.333333333   0.500000000    0   0   0
La1      0.833333333   0.833333333   0.500000000    0   0   0
La1      0.333333333   0.833333333   0.500000000    0   0   0
La1     -0.000002469  -0.000000126   0.614025231
La1      0.499786227   0.000432265   0.616659981
La1      0.000431593   0.499786497   0.616659234
La1      0.499783093   0.499783377   0.616659838
H1      -0.000000100  -0.000000399   0.697352081
End final coordinates

     Writing output data file calc.save

     General routines

     Parallel routines

   This run was terminated on:  12:33:36   3May2018

   JOB DONE.
Job  /afs/slac/g/suncat/bin/suncat-tsmpirun -x LD_LIBRARY_PATH -wdir /scratch/qe731026_prHLA pw.x -npool 4 -in pw.inp

TID   HOST_NAME   COMMAND_LINE            STATUS            TERMINATION_TIME
00000 suncat0123 pw.x -npool 4 -i  Done                     05/03/2018 12:33:36
00001 suncat0123 pw.x -npool 4 -i  Done                     05/03/2018 12:33:36
00002 suncat0123 pw.x -npool 4 -i  Done                     05/03/2018 12:33:36
00003 suncat0123 pw.x -npool 4 -i  Done                     05/03/2018 12:33:36
00004 suncat0123 pw.x -npool 4 -i  Done                     05/03/2018 12:33:36
00005 suncat0123 pw.x -npool 4 -i  Done                     05/03/2018 12:33:36
00006 suncat0123 pw.x -npool 4 -i  Done                     05/03/2018 12:33:36
00007 suncat0123 pw.x -npool 4 -i  Done                     05/03/2018 12:33:36
00008 suncat0121 pw.x -npool 4 -i  Done                     05/03/2018 12:33:36
00009 suncat0121 pw.x -npool 4 -i  Done                     05/03/2018 12:33:36
00010 suncat0121 pw.x -npool 4 -i  Done                     05/03/2018 12:33:36
00011 suncat0121 pw.x -npool 4 -i  Done                     05/03/2018 12:33:36
00012 suncat0121 pw.x -npool 4 -i  Done                     05/03/2018 12:33:36
00013 suncat0121 pw.x -npool 4 -i  Done                     05/03/2018 12:33:36
00014 suncat0121 pw.x -npool 4 -i  Done                     05/03/2018 12:33:36
00015 suncat0121 pw.x -npool 4 -i  Done                     05/03/2018 12:33:36
00016 suncat0105 pw.x -npool 4 -i  Done                     05/03/2018 12:33:36
00017 suncat0105 pw.x -npool 4 -i  Done                     05/03/2018 12:33:36
00018 suncat0105 pw.x -npool 4 -i  Done                     05/03/2018 12:33:36
00019 suncat0105 pw.x -npool 4 -i  Done                     05/03/2018 12:33:36
00020 suncat0105 pw.x -npool 4 -i  Done                     05/03/2018 12:33:36
00021 suncat0105 pw.x -npool 4 -i  Done                     05/03/2018 12:33:36
00022 suncat0105 pw.x -npool 4 -i  Done                     05/03/2018 12:33:36
00023 suncat0105 pw.x -npool 4 -i  Done                     05/03/2018 12:33:36
00024 suncat0100 pw.x -npool 4 -i  Done                     05/03/2018 12:33:36
00025 suncat0100 pw.x -npool 4 -i  Done                     05/03/2018 12:33:36
00026 suncat0100 pw.x -npool 4 -i  Done                     05/03/2018 12:33:36
00027 suncat0100 pw.x -npool 4 -i  Done                     05/03/2018 12:33:36
00028 suncat0100 pw.x -npool 4 -i  Done                     05/03/2018 12:33:36
00029 suncat0100 pw.x -npool 4 -i  Done                     05/03/2018 12:33:36
00030 suncat0100 pw.x -npool 4 -i  Done                     05/03/2018 12:33:36
00031 suncat0100 pw.x -npool 4 -i  Done                     05/03/2018 12:33:36