     Program PWSCF v.5.1rc2 (svn rev. 11289) starts on 16Apr2018 at 11:17:37

     Current dimensions of program PWSCF are:
     Max number of different atomic species (ntypx) = 10
     Max number of k-points (npk) =  40000
     Max angular momentum in pseudopotentials (lmaxx) =  3
     Presently stress not available with electric field

     IMPORTANT: XC functional enforced from input :
     Exchange-correlation      = BEEF-VDW ( 1  4 27 13 2)
     Any further DFT definition will be discarded
     Please, verify this is what you really want

     Subspace diagonalization in iterative solution of the eigenvalue problem:
     a serial algorithm will be used

     bravais-lattice index     =            0
     lattice parameter (alat)  =       1.8897  a.u.
     unit-cell volume          =    4650.5773 (a.u.)^3
     number of atoms/cell      =           14
     number of atomic types    =            3
     number of electrons       =        42.00
     number of Kohn-Sham states=           31
     kinetic-energy cutoff     =      36.7493  Ry
     charge density cutoff     =     367.4932  Ry
     convergence threshold     =      1.0E-05
     mixing beta               =       0.3000
     number of iterations used =           10  plain     mixing
     Exchange-correlation      = BEEF-VDW ( 1  4 27 13 2)
     nstep                     =           50

     celldm(1)=   1.889726  celldm(2)=   0.000000  celldm(3)=   0.000000
     celldm(4)=   0.000000  celldm(5)=   0.000000  celldm(6)=   0.000000

     crystal axes: (cart. coord. in units of alat)
               a(1) = (   5.682886   0.000000   0.000000 )
               a(2) = (   2.841443   4.921524   0.000000 )
               a(3) = (   0.000000   0.000000  24.640057 )

     reciprocal axes: (cart. coord. in units 2 pi/alat)
               b(1) = (  0.175967 -0.101595  0.000000 )
               b(2) = (  0.000000  0.203189  0.000000 )
               b(3) = (  0.000000  0.000000  0.040584 )

     PseudoPot. # 1 for Al read from file:
     /u/if/mamunm/psp/gbrv1.5pbe/Al.UPF
     MD5 check sum: 0a6289f5291fc8f409219462bc851e1f
     Pseudo is Ultrasoft + core correction, Zval =  3.0
     Generated by new atomic code, or converted to UPF format
     Using radial grid of  893 points,  3 beta functions with:
                l(1) =   0
                l(2) =   1
                l(3) =   2
     Q(r) pseudized with  8 coefficients,  rinner =    0.900   0.900   0.900
                                                       0.900   0.900

     PseudoPot. # 2 for N  read from file:
     /u/if/mamunm/psp/gbrv1.5pbe/N.UPF
     MD5 check sum: 95339753478d7afb44899504a8723017
     Pseudo is Ultrasoft + core correction, Zval =  5.0
     Generated by new atomic code, or converted to UPF format
     Using radial grid of  729 points,  4 beta functions with:
                l(1) =   0
                l(2) =   0
                l(3) =   1
                l(4) =   1
     Q(r) pseudized with  8 coefficients,  rinner =    0.900   0.900   0.900

     PseudoPot. # 3 for H  read from file:
     /u/if/mamunm/psp/gbrv1.5pbe/H.UPF
     MD5 check sum: 761ae9a214b05c3daf00ab9f6b793d6f
     Pseudo is Ultrasoft, Zval =  1.0
     Generated by new atomic code, or converted to UPF format
     Using radial grid of  615 points,  2 beta functions with:
                l(1) =   0
                l(2) =   0
     Q(r) pseudized with  8 coefficients,  rinner =    0.700

     vdW kernel table read from file vdW_kernel_table
     MD5 check sum: 095c7af220d748ca6e76c0b4c6cfb241

     atomic species   valence    mass     pseudopotential
        Al1            3.00    26.98154     Al( 1.00)
        N1             5.00    14.00700     N ( 1.00)
        H1             1.00     1.00800     H ( 1.00)

     No symmetry found

   Cartesian axes

     site n.     atom                  positions (alat units)
         1           Al1 tau(   1) = (   1.4207216   0.8202540  10.0000000  )
         2           Al1 tau(   2) = (   4.2621647   0.8202540  10.0000000  )
         3           Al1 tau(   3) = (   2.8414431   3.2810159  10.0000000  )
         4           Al1 tau(   4) = (   5.6828862   3.2810159  10.0000000  )
         5           Al1 tau(   5) = (   5.6828862   1.6405079  12.3200286  )
         6           Al1 tau(   6) = (   2.8414431   1.6405079  12.3200286  )
         7           Al1 tau(   7) = (   7.1036078   4.1012699  12.3200286  )
         8           Al1 tau(   8) = (   4.2621647   4.1012699  12.3200286  )
         9           Al1 tau(   9) = (   0.0000000   0.0000000  14.6400572  )
        10           Al1 tau(  10) = (   2.8414431   0.0000000  14.6400572  )
        11           Al1 tau(  11) = (   1.4207216   2.4607619  14.6400572  )
        12           Al1 tau(  12) = (   4.2621647   2.4607619  14.6400572  )
        13           N1  tau(  13) = (   1.4207216   0.8202540  15.8880572  )
        14           H1  tau(  14) = (   1.4207216   0.8202540  16.9380572  )

     number of k points=    20  Fermi-Dirac smearing, width (Ry)=  0.0110
                       cart. coord. in units 2pi/alat
        k(    1) = (   0.0000000   0.0000000   0.0000000), wk =   0.0555556
        k(    2) = (   0.0000000   0.0338648   0.0000000), wk =   0.1111111
        k(    3) = (   0.0000000   0.0677297   0.0000000), wk =   0.1111111
        k(    4) = (   0.0000000  -0.1015945   0.0000000), wk =   0.0555556
        k(    5) = (   0.0293278  -0.0169324   0.0000000), wk =   0.1111111
        k(    6) = (   0.0293278   0.0169324   0.0000000), wk =   0.1111111
        k(    7) = (   0.0293278   0.0507973   0.0000000), wk =   0.1111111
        k(    8) = (   0.0293278  -0.1185270   0.0000000), wk =   0.1111111
        k(    9) = (   0.0293278  -0.0846621   0.0000000), wk =   0.1111111
        k(   10) = (   0.0293278  -0.0507973   0.0000000), wk =   0.1111111
        k(   11) = (   0.0586556  -0.0338648   0.0000000), wk =   0.1111111
        k(   12) = (   0.0586556   0.0000000   0.0000000), wk =   0.1111111
        k(   13) = (   0.0586556   0.0338648   0.0000000), wk =   0.1111111
        k(   14) = (   0.0586556  -0.1354594   0.0000000), wk =   0.1111111
        k(   15) = (   0.0586556  -0.1015945   0.0000000), wk =   0.1111111
        k(   16) = (   0.0586556  -0.0677297   0.0000000), wk =   0.1111111
        k(   17) = (  -0.0879835   0.0507973   0.0000000), wk =   0.0555556
        k(   18) = (  -0.0879835   0.0846621   0.0000000), wk =   0.1111111
        k(   19) = (  -0.0879835   0.1185270   0.0000000), wk =   0.1111111
        k(   20) = (  -0.0879835  -0.0507973   0.0000000), wk =   0.0555556

     Largest allocated arrays     est. size (Mb)     dimensions
     Largest temporary arrays     est. size (Mb)     dimensions

     Initial potential from superposition of free atoms
     Check: negative starting charge=   -0.000151

     starting charge   41.97040, renormalised to   42.00000

     negative rho (up, down):  1.508E-04 0.000E+00

     *
     * You are using vdW-DF for exchange-correlation in this calculation.
     * Please cite the following three references that made this development
     * possible:
     *
     *   M. Dion, H. Rydberg, E. Schroder, D. C. Langreth, and
     *   B. I. Lundqvist, Phys. Rev. Lett. 92, 246401 (2004).
     *
     *   T. Thonhauser, V. R. Cooper, S. Li, A. Puzder, P. Hyldgaard, and
     *   D. C. Langreth, Phys. Rev. B 76, 125112 (2007).
     *
     *   G. Roman-Perez and J. M. Soler, Phys. Rev. Lett. 103, 096102 (2009).
     *
     *
     * If you are using vdW-DF2, please also cite:
     *
     *   K. Lee, E. D. Murray, L. Kong, B. I. Lundqvist, and
     *   D. C. Langreth, Phys. Rev. B 82, 081101(R) (2010).
     *
     *
     * If you are calculating the stress with vdW-DF, please also cite:
     *
     *   R. Sabatini, E. Kucukbenli, B. Kolb, T. Thonhauser, and
     *   S. de Gironcoli, J. Phys.: Condens. Matter 24, 424209 (2012).
     *

     Carrying out vdW-DF run using the following parameters:

     Nqs =      20    Nr_points =    1024   r_max =   100.000
     q_mesh =
               0.00001000     0.04494208     0.09755937     0.15916263
               0.23128650     0.31572767     0.41458969     0.53033537
               0.66584808     0.82450364     1.01025438     1.22772762
               1.48234092     1.78043706     2.12944203     2.53805004
               3.01644009     3.57652955     4.23227104     5.00000000

     Gradients computed in reciprocal space

     Adding external electric field

     Computed dipole along edir(3) :
        Dipole               -0.0298 Ry au,         -0.0757 Debye
        Dipole field         -0.0001 Ry au

        Potential amp.        0.0073 Ry
        Total length         45.3989 bohr

     Starting wfc are   53 randomized atomic wfcs

     Self-consistent Calculation

     iteration #  1     ecut=    36.75 Ry     beta=0.30
     Davidson diagonalization with overlap
     ethr =  1.00E-02,  avg # of iterations =  3.0

[...]

     total energy              =    -103.67666772 Ry
     Harris-Foulkes estimate   =    -104.35516260 Ry
     estimated scf accuracy    <       1.59293932 Ry

[...]

     End of self-consistent calculation

          k = 0.0000 0.0000 0.0000 ( 17579 PWs)   bands (ev):

   -16.1618 -10.9984  -9.4131  -7.6765  -6.1209  -5.4796  -5.4796  -5.0617
    -5.0617  -5.0223  -4.7863  -4.4805  -4.4805  -3.6099  -3.3575  -3.2947
    -3.2947  -2.7178  -2.7178  -2.0834  -0.7234  -0.7234  -0.5924   0.0659
     0.4885   0.4885   0.6893   2.0004   2.2282   2.2283   2.2571

[...]

          k =-0.0880 0.0508 0.0000 ( 17464 PWs)   bands (ev):

[...]

     the Fermi energy is    -0.3378 ev

!    total energy              =    -104.01817559 Ry
     Harris-Foulkes estimate   =    -104.01818726 Ry
     estimated scf accuracy    <       0.00000792 Ry

     The total energy is the sum of the following terms:

     one-electron contribution =    -784.16433533 Ry
     hartree contribution      =     401.39692763 Ry
     xc contribution           =     -59.52776940 Ry
     ewald contribution        =     338.30457472 Ry
     electric field correction =       0.00006637 Ry
     smearing contrib. (-TS)   =      -0.02763958 Ry

     convergence has been achieved in  10 iterations

 BEEF-vdW xc energy contributions
           1 :   -48.9652520380033
           2 :    42.0645836844993
           3 :   -31.4660968629521
           4 :    21.3244463411266
           5 :   -14.2960617079777
           6 :    10.5703938674159
           7 :   -8.66081882548555
           8 :    7.01822865883706
           9 :   -5.14939330412852
          10 :    3.54418624662243
          11 :   -2.79524230704700
          12 :    2.85801797565143
          13 :   -3.08414362232882
          14 :    2.84939373475059
          15 :   -2.08713598260080
          16 :    1.23895896926055
          17 :  -0.758328338874968
          18 :   0.691084273194406
          19 :  -0.707795939974531
          20 :   0.486227855998862
          21 :  -2.910046724319670E-002
          22 :  -0.379658788500279
          23 :   0.488138202044865
          24 :  -0.324218308905955
          25 :   0.146025767789311
          26 :  -0.175267673086729
          27 :   0.391490586696463
          28 :  -0.579049492725318
          29 :   0.557002949207643
          30 :  -0.354706608992458
          31 :   -7.23958060331736
          32 :   -5.26104279144545

     Forces acting on atoms (Ry/au):

     negative rho (up, down):  6.876E-04 0.000E+00
     atom    1 type  1   force =     0.00000044   -0.00000012    0.00217505
     atom    2 type  1   force =    -0.00000001    0.00019749   -0.00058010
     atom    3 type  1   force =     0.00017110   -0.00009869   -0.00058051
     atom    4 type  1   force =    -0.00017122   -0.00009865   -0.00058013
     atom    5 type  1   force =    -0.00117571    0.00067880    0.00909037
     atom    6 type  1   force =     0.00117551    0.00067869    0.00908985
     atom    7 type  1   force =    -0.00000004   -0.00000027   -0.00660695
     atom    8 type  1   force =     0.00000000   -0.00135733    0.00909002
     atom    9 type  1   force =     0.00194218    0.00112176    0.03392052
     atom   10 type  1   force =    -0.00194221    0.00112158    0.03392048
     atom   11 type  1   force =    -0.00000013   -0.00224271    0.03392048
     atom   12 type  1   force =     0.00000015   -0.00000016   -0.02017307
     atom   13 type  2   force =    -0.00000024   -0.00000044   -0.05839353
     atom   14 type  3   force =     0.00000018    0.00000005   -0.04429248

     Total force =     0.096153     Total SCF correction =     0.002359

     entering subroutine stress ...

     negative rho (up, down):  6.876E-04 0.000E+00
          total   stress  (Ry/bohr**3)                   (kbar)     P=  -10.75
  -0.00006453  -0.00000000  -0.00000000         -9.49     -0.00     -0.00
  -0.00000000  -0.00006453   0.00000000         -0.00     -9.49      0.00
  -0.00000000   0.00000000  -0.00009021         -0.00      0.00    -13.27

     BFGS Geometry Optimization

     number of scf cycles    =   1
     number of bfgs steps    =   0

     energy   new            =    -104.0181755937 Ry

     new trust radius        =       0.0583935331 bohr
     new conv_thr            =       0.0000099958 Ry

ATOMIC_POSITIONS (crystal)
Al1      0.166666667   0.166666667   0.405843214    0   0   0
Al1      0.666666667   0.166666667   0.405843214    0   0   0
Al1      0.166666667   0.666666667   0.405843214    0   0   0
Al1      0.666666667   0.666666667   0.405843214    0   0   0
Al1      0.833333333   0.333333333   0.500000000    0   0   0
Al1      0.333333333   0.333333333   0.500000000    0   0   0
Al1      0.833333333   0.833333333   0.500000000    0   0   0
Al1      0.333333333   0.833333333   0.500000000    0   0   0
Al1      0.000120544   0.000120615   0.594885273
Al1      0.499758848   0.000120596   0.594885272
Al1      0.000120559   0.499758857   0.594885272
Al1      0.500000023   0.499999983   0.593723543
N1       0.166666667   0.166666620   0.643551942
H1       0.166666681   0.166666672   0.686468318

     Writing output data file calc.save
     Check: negative starting charge=   -0.000151
     NEW-OLD atomic charge density approx. for the potential
     Check: negative starting charge=   -0.000148

[...]

     energy   old            =    -104.0181755937 Ry
     energy   new            =    -104.0264623344 Ry

     CASE: energy  _new < energy  _old

[...]

     Threshold (ethr) on eigenvalues was too large:
     Diagonalizing with lowered threshold

     Davidson diagonalization with overlap
     ethr =  1.73E-08,  avg # of iterations =  2.6

[...]

     number of scf cycles    =  15
     number of bfgs steps    =  14

     energy   old            =    -104.0547945297 Ry
     energy   new            =    -104.0548260188 Ry

     CASE: energy  _new < energy  _old

     new trust radius        =       0.0125724301 bohr
     new conv_thr            =       0.0000001000 Ry

ATOMIC_POSITIONS (crystal)
Al1      0.166666667   0.166666667   0.405843214    0   0   0
Al1      0.666666667   0.166666667   0.405843214    0   0   0
Al1      0.166666667   0.666666667   0.405843214    0   0   0
Al1      0.666666667   0.666666667   0.405843214    0   0   0
Al1      0.833333333   0.333333333   0.500000000    0   0   0
Al1      0.333333333   0.333333333   0.500000000    0   0   0
Al1      0.833333333   0.833333333   0.500000000    0   0   0
Al1      0.333333333   0.833333333   0.500000000    0   0   0
Al1     -0.006819751  -0.006819738   0.594975559
Al1      0.513639489  -0.006819747   0.594975554
Al1     -0.006819767   0.513639516   0.594975557
Al1      0.499999989   0.500000004   0.588060645
N1       0.166666663   0.166666672   0.632164959
H1       0.166666677   0.166666665   0.673691754

     Writing output data file calc.save
     Check: negative starting charge=   -0.000150
     NEW-OLD atomic charge density approx. for the potential
     Check: negative starting charge=   -0.000150

[...]

     Self-consistent Calculation

[...]

     Threshold (ethr) on eigenvalues was too large:
     Diagonalizing with lowered threshold

     Davidson diagonalization with overlap
     ethr =  1.90E-08,  avg # of iterations =  2.6

[...]

     total energy              =    -104.05485993 Ry
     Harris-Foulkes estimate   =    -104.05486005 Ry
     estimated scf accuracy    <       0.00000014 Ry

     iteration #  6     ecut=    36.75 Ry     beta=0.30
     Davidson diagonalization with overlap
     ethr =  3.29E-10,  avg # of iterations =  2.6

[...]

     negative rho (up, down):  6.809E-04 0.000E+00

     Adding external electric field

     Computed dipole along edir(3) :
        Dipole                0.2390 Ry au,          0.6074 Debye
        Dipole field          0.0006 Ry au

        Potential amp.       -0.0586 Ry
        Total length         45.3989 bohr

     End of self-consistent calculation

[...]

          k = 0.0587-0.0677 0.0000 ( 17495 PWs)   bands (ev):

[...]

          k =-0.0880-0.0508 0.0000 ( 17464 PWs)   bands (ev):

   -17.0604  -9.5079  -9.4859  -8.4758  -7.9537  -7.0055  -6.7492  -6.0849
    -5.7665  -5.6924  -4.9114  -3.8735  -3.8534  -3.5141  -2.1488  -1.6336
    -1.5003  -1.1047  -0.6572  -0.4422  -0.4368   0.1874   0.6727   0.9677
     1.2864   1.3846   1.4745   1.6737   2.2843   2.5265   2.5887

     the Fermi energy is    -0.1947 ev

!    total energy              =    -104.05485993 Ry
     Harris-Foulkes estimate   =    -104.05486037 Ry
     estimated scf accuracy    <       0.00000003 Ry

     The total energy is the sum of the following terms:

     one-electron contribution =    -806.43950076 Ry
     hartree contribution      =     412.55430948 Ry
     xc contribution           =     -59.72520558 Ry
     ewald contribution        =     349.58308269 Ry
     electric field correction =       0.00015430 Ry
     smearing contrib. (-TS)   =      -0.02770006 Ry

     convergence has been achieved in   6 iterations

 BEEF-vdW xc energy contributions
           1 :   -49.1536333675146
           2 :    42.2680296784588
           3 :   -31.6602520528892
           4 :    21.4582695063023
           5 :   -14.3323565762291
           6 :    10.5129628708439
           7 :   -8.55133884021583
           8 :    6.90695289330328
           9 :   -5.06298469066611
          10 :    3.47505699478708
          11 :   -2.71807657668376
          12 :    2.75752968119986
          13 :   -2.96946510955782
          14 :    2.74350582823789
          15 :   -2.00493729913883
          16 :    1.17676753846006
          17 :  -0.702945457280386
          18 :   0.637076851830599
          19 :  -0.663933492812923
          20 :   0.463281694207581
          21 :  -2.282804910144876E-002
          22 :  -0.390110986857337
          23 :   0.522964407549026
          24 :  -0.383609863667786
          25 :   0.208149709803628
          26 :  -0.214227189002273
          27 :   0.398526797761406
          28 :  -0.566803922983411
          29 :   0.543647948349410
          30 :  -0.345749300029503
          31 :   -7.25216298940037
          32 :   -5.27335498641818

     Forces acting on atoms (Ry/au):

     negative rho (up, down):  6.809E-04 0.000E+00
     atom    1 type  1   force =     0.00000000    0.00000000    0.00114469
     atom    2 type  1   force =    -0.00000000    0.00033196    0.00095172
     atom    3 type  1   force =     0.00028748   -0.00016599    0.00095173
     atom    4 type  1   force =    -0.00028749   -0.00016598    0.00095174
     atom    5 type  1   force =     0.00447425   -0.00258321    0.00105258
     atom    6 type  1   force =    -0.00447425   -0.00258321    0.00105256
     atom    7 type  1   force =     0.00000000    0.00000000   -0.00715794
     atom    8 type  1   force =    -0.00000000    0.00516642    0.00105257
     atom    9 type  1   force =    -0.00100114   -0.00057800   -0.00083045
     atom   10 type  1   force =     0.00100112   -0.00057799   -0.00083043
     atom   11 type  1   force =     0.00000001    0.00115597   -0.00083042
     atom   12 type  1   force =     0.00000000   -0.00000000    0.00182200
     atom   13 type  2   force =     0.00000001    0.00000002    0.00028159
     atom   14 type  3   force =     0.00000000    0.00000000    0.00038806

     Total force =     0.003103     Total SCF correction =     0.000075

     entering subroutine stress ...

     negative rho (up, down):  6.809E-04 0.000E+00
          total   stress  (Ry/bohr**3)                   (kbar)     P=   -3.39
  -0.00003206   0.00000000   0.00000000         -4.72      0.00      0.00
   0.00000000  -0.00003206   0.00000000          0.00     -4.72      0.00
   0.00000000   0.00000000  -0.00000492          0.00      0.00     -0.72

     bfgs converged in  16 scf cycles and  15 bfgs steps
     (criteria: energy <  1.0E+00, force <  1.9E-03)

     End of BFGS Geometry Optimization

     Final energy   =    -104.0548599318 Ry
Begin final coordinates

ATOMIC_POSITIONS (crystal)
Al1      0.166666667   0.166666667   0.405843214    0   0   0
Al1      0.666666667   0.166666667   0.405843214    0   0   0
Al1      0.166666667   0.666666667   0.405843214    0   0   0
Al1      0.666666667   0.666666667   0.405843214    0   0   0
Al1      0.833333333   0.333333333   0.500000000    0   0   0
Al1      0.333333333   0.333333333   0.500000000    0   0   0
Al1      0.833333333   0.833333333   0.500000000    0   0   0
Al1      0.333333333   0.833333333   0.500000000    0   0   0
Al1     -0.006819751  -0.006819738   0.594975559
Al1      0.513639489  -0.006819747   0.594975554
Al1     -0.006819767   0.513639516   0.594975557
Al1      0.499999989   0.500000004   0.588060645
N1       0.166666663   0.166666672   0.632164959
H1       0.166666677   0.166666665   0.673691754
End final coordinates

     Writing output data file calc.save

     General routines

     Parallel routines

   This run was terminated on:  11:52:37  16Apr2018

   JOB DONE.
Job  /afs/slac/g/suncat/bin/suncat-tsmpirun -x LD_LIBRARY_PATH -wdir /scratch/qe111853_r7z8p pw.x -npool 4 -in pw.inp

TID   HOST_NAME   COMMAND_LINE            STATUS            TERMINATION_TIME
00000 suncat0087 pw.x -npool 4 -i  Done                     04/16/2018 11:52:37
00001 suncat0087 pw.x -npool 4 -i  Done                     04/16/2018 11:52:37
00002 suncat0087 pw.x -npool 4 -i  Done                     04/16/2018 11:52:37
00003 suncat0087 pw.x -npool 4 -i  Done                     04/16/2018 11:52:37
00004 suncat0087 pw.x -npool 4 -i  Done                     04/16/2018 11:52:37
00005 suncat0087 pw.x -npool 4 -i  Done                     04/16/2018 11:52:37
00006 suncat0087 pw.x -npool 4 -i  Done                     04/16/2018 11:52:37
00007 suncat0087 pw.x -npool 4 -i  Done                     04/16/2018 11:52:37
00008 suncat0086 pw.x -npool 4 -i  Done                     04/16/2018 11:52:37
00009 suncat0086 pw.x -npool 4 -i  Done                     04/16/2018 11:52:37
00010 suncat0086 pw.x -npool 4 -i  Done                     04/16/2018 11:52:37
00011 suncat0086 pw.x -npool 4 -i  Done                     04/16/2018 11:52:37
00012 suncat0086 pw.x -npool 4 -i  Done                     04/16/2018 11:52:37
00013 suncat0086 pw.x -npool 4 -i  Done                     04/16/2018 11:52:37
00014 suncat0086 pw.x -npool 4 -i  Done                     04/16/2018 11:52:37
00015 suncat0086 pw.x -npool 4 -i  Done                     04/16/2018 11:52:37
00016 suncat0196 pw.x -npool 4 -i  Done                     04/16/2018 11:52:37
00017 suncat0196 pw.x -npool 4 -i  Done                     04/16/2018 11:52:37
00018 suncat0196 pw.x -npool 4 -i  Done                     04/16/2018 11:52:37
00019 suncat0196 pw.x -npool 4 -i  Done                     04/16/2018 11:52:37
00020 suncat0196 pw.x -npool 4 -i  Done                     04/16/2018 11:52:37
00021 suncat0196 pw.x -npool 4 -i  Done                     04/16/2018 11:52:37
00022 suncat0196 pw.x -npool 4 -i  Done                     04/16/2018 11:52:37
00023 suncat0196 pw.x -npool 4 -i  Done                     04/16/2018 11:52:37
00024 suncat0192 pw.x -npool 4 -i  Done                     04/16/2018 11:52:37
00025 suncat0192 pw.x -npool 4 -i  Done                     04/16/2018 11:52:37
00026 suncat0192 pw.x -npool 4 -i  Done                     04/16/2018 11:52:37
00027 suncat0192 pw.x -npool 4 -i  Done                     04/16/2018 11:52:37
00028 suncat0192 pw.x -npool 4 -i  Done                     04/16/2018 11:52:37
00029 suncat0192 pw.x -npool 4 -i  Done                     04/16/2018 11:52:37
00030 suncat0192 pw.x -npool 4 -i  Done                     04/16/2018 11:52:37
00031 suncat0192 pw.x -npool 4 -i  Done                     04/16/2018 11:52:37