     Program PWSCF v.5.1rc2 (svn rev. 11289) starts on 11Jan2019 at 17:14:44

     Current dimensions of program PWSCF are:
     Max number of different atomic species (ntypx) = 10
     Max number of k-points (npk) =  40000
     Max angular momentum in pseudopotentials (lmaxx) =  3

     IMPORTANT: XC functional enforced from input :
     Exchange-correlation      = BEEF-VDW ( 1  4 27 13 2)
     Any further DFT definition will be discarded
     Please, verify this is what you really want

     Subspace diagonalization in iterative solution of the eigenvalue problem:
     a serial algorithm will be used

     Generating pointlists ...
     new r_m :   0.1454 (alat units)  1.3773 (a.u.) for type    1
     new r_m :   0.1454 (alat units)  1.3773 (a.u.) for type    2

     bravais-lattice index     =            0
     lattice parameter (alat)  =       9.4723  a.u.
     unit-cell volume          =    3537.7769 (a.u.)^3
     number of atoms/cell      =           13
     number of atomic types    =            2
     number of electrons       =       209.00
     number of Kohn-Sham states=          114
     kinetic-energy cutoff     =      36.7493  Ry
     charge density cutoff     =     367.4933  Ry
     convergence threshold     =      1.0E-04
     mixing beta               =       0.1000
     number of iterations used =            8  plain     mixing
     Exchange-correlation      = BEEF-VDW ( 1  4 27 13 2)
     nstep                     =           50

     celldm(1)=   9.472344  celldm(2)=   0.000000  celldm(3)=   0.000000
     celldm(4)=   0.000000  celldm(5)=   0.000000  celldm(6)=   0.000000

     crystal axes: (cart. coord. in units of alat)
               a(1) = (   1.000000   0.000000   0.000000 )
               a(2) = (   0.500000   0.866025   0.000000 )
               a(3) = (   0.000000   0.000000   4.806483 )

     reciprocal axes: (cart. coord. in units 2 pi/alat)
               b(1) = (  1.000000 -0.577350  0.000000 )
               b(2) = (  0.000000  1.154701  0.000000 )
               b(3) = (  0.000000  0.000000  0.208052 )

     PseudoPot. # 1 for Co read from file:
     /u/if/jboes/code/decaf-espresso/gbrv15pbe/Co.UPF
     MD5 check sum: 5f91765df6ddd3222702df6e7b74a16d
     Pseudo is Ultrasoft + core correction, Zval = 17.0
     Generated by new atomic code, or converted to UPF format
     Using radial grid of  863 points,  6 beta functions with:
                l(1) =   0
                l(2) =   0
                l(3) =   1
                l(4) =   1
                l(5) =   2
                l(6) =   2
     Q(r) pseudized with  8 coefficients,  rinner =    1.200   1.200   1.200
                                                       1.200   1.200

     PseudoPot. # 2 for N  read from file:
     /u/if/jboes/code/decaf-espresso/gbrv15pbe/N.UPF
     MD5 check sum: 95339753478d7afb44899504a8723017
     Pseudo is Ultrasoft + core correction, Zval =  5.0
     Generated by new atomic code, or converted to UPF format
     Using radial grid of  729 points,  4 beta functions with:
                l(1) =   0
                l(2) =   0
                l(3) =   1
                l(4) =   1
     Q(r) pseudized with  8 coefficients,  rinner =    0.900   0.900   0.900

     vdW kernel table read from file vdW_kernel_table
     MD5 check sum: 095c7af220d748ca6e76c0b4c6cfb241

     atomic species   valence    mass     pseudopotential
        Co            17.00    58.93319     Co( 1.00)
        N              5.00    14.00700     N ( 1.00)

     Starting magnetic structure
     atomic species   magnetization
        Co           0.118
        N            0.000

     No symmetry found

   Cartesian axes

     site n.     atom                  positions (alat units)
         1           Co  tau(   1) = (   0.2500000   0.1443376   1.9949931  )
         2           Co  tau(   2) = (   0.7500000   0.1443376   1.9949931  )
         3           Co  tau(   3) = (   0.5000000   0.5773503   1.9949931  )
         4           Co  tau(   4) = (   1.0000000   0.5773503   1.9949931  )
         5           Co  tau(   5) = (   1.0000000   0.2886751   2.4032414  )
         6           Co  tau(   6) = (   0.5000000   0.2886751   2.4032414  )
         7           Co  tau(   7) = (   1.2500000   0.7216878   2.4032414  )
         8           Co  tau(   8) = (   0.7500000   0.7216878   2.4032414  )
         9           Co  tau(   9) = (  -0.0045312  -0.0026421   2.8245083  )
        10           Co  tau(  10) = (   0.5045518  -0.0028867   2.8244547  )
        11           Co  tau(  11) = (   0.2497987   0.4384025   2.8244435  )
        12           Co  tau(  12) = (   0.7498930   0.4329424   2.7964790  )
        13           N   tau(  13) = (   0.2503537   0.1445803   3.0191705  )

     number of k points=    40  Fermi-Dirac smearing, width (Ry)=  0.0110
                       cart. coord. in units 2pi/alat
        k(    1) = (   0.0000000   0.0000000   0.0000000), wk =   0.0277778
        k(    2) = (   0.0000000   0.1924501   0.0000000), wk =   0.0555556
        k(    3) = (   0.0000000   0.3849002   0.0000000), wk =   0.0555556
        k(    4) = (   0.0000000  -0.5773503   0.0000000), wk =   0.0277778
        k(    5) = (   0.1666667  -0.0962250   0.0000000), wk =   0.0555556
        k(    6) = (   0.1666667   0.0962250   0.0000000), wk =   0.0555556
        k(    7) = (   0.1666667   0.2886751   0.0000000), wk =   0.0555556
        k(    8) = (   0.1666667  -0.6735753   0.0000000), wk =   0.0555556
        k(    9) = (   0.1666667  -0.4811252   0.0000000), wk =   0.0555556
        k(   10) = (   0.1666667  -0.2886751   0.0000000), wk =   0.0555556
        k(   11) = (   0.3333333  -0.1924501   0.0000000), wk =   0.0555556
        k(   12) = (   0.3333333  -0.0000000   0.0000000), wk =   0.0555556
        k(   13) = (   0.3333333   0.1924501   0.0000000), wk =   0.0555556
        k(   14) = (   0.3333333  -0.7698004   0.0000000), wk =   0.0555556
        k(   15) = (   0.3333333  -0.5773503   0.0000000), wk =   0.0555556
        k(   16) = (   0.3333333  -0.3849002   0.0000000), wk =   0.0555556
        k(   17) = (  -0.5000000   0.2886751   0.0000000), wk =   0.0277778
        k(   18) = (  -0.5000000   0.4811252   0.0000000), wk =   0.0555556
        k(   19) = (  -0.5000000   0.6735753   0.0000000), wk =   0.0555556
        k(   20) = (  -0.5000000  -0.2886751   0.0000000), wk =   0.0277778
        k(   21) = (   0.0000000   0.0000000   0.0000000), wk =   0.0277778
        k(   22) = (   0.0000000   0.1924501   0.0000000), wk =   0.0555556
        k(   23) = (   0.0000000   0.3849002   0.0000000), wk =   0.0555556
        k(   24) = (   0.0000000  -0.5773503   0.0000000), wk =   0.0277778
        k(   25) = (   0.1666667  -0.0962250   0.0000000), wk =   0.0555556
        k(   26) = (   0.1666667   0.0962250   0.0000000), wk =   0.0555556
        k(   27) = (   0.1666667   0.2886751   0.0000000), wk =   0.0555556
        k(   28) = (   0.1666667  -0.6735753   0.0000000), wk =   0.0555556
        k(   29) = (   0.1666667  -0.4811252   0.0000000), wk =   0.0555556
        k(   30) = (   0.1666667  -0.2886751   0.0000000), wk =   0.0555556
        k(   31) = (   0.3333333  -0.1924501   0.0000000), wk =   0.0555556
        k(   32) = (   0.3333333  -0.0000000   0.0000000), wk =   0.0555556
        k(   33) = (   0.3333333   0.1924501   0.0000000), wk =   0.0555556
        k(   34) = (   0.3333333  -0.7698004   0.0000000), wk =   0.0555556
        k(   35) = (   0.3333333  -0.5773503   0.0000000), wk =   0.0555556
        k(   36) = (   0.3333333  -0.3849002   0.0000000), wk =   0.0555556
        k(   37) = (  -0.5000000   0.2886751   0.0000000), wk =   0.0277778
        k(   38) = (  -0.5000000   0.4811252   0.0000000), wk =   0.0555556
        k(   39) = (  -0.5000000   0.6735753   0.0000000), wk =   0.0555556
        k(   40) = (  -0.5000000  -0.2886751   0.0000000), wk =   0.0277778

     Largest allocated arrays     est. size (Mb)     dimensions
     Largest temporary arrays     est. size (Mb)     dimensions

     Check: negative/imaginary core charge=   -0.000007    0.000000

     Initial potential from superposition of free atoms
     Check: negative starting charge=(component1):   -0.000202
     Check: negative starting charge=(component2):   -0.000159

     starting charge  196.99991, renormalised to  209.00000

     negative rho (up, down):  2.138E-04 1.684E-04

     *
     * You are using vdW-DF for exchange-correlation in this calculation.
     * Please cite the following three references that made this development
     * possible:
     *
     *   M. Dion, H. Rydberg, E. Schroder, D. C. Langreth, and
     *   B. I. Lundqvist, Phys. Rev. Lett. 92, 246401 (2004).
     *
     *   T. Thonhauser, V. R. Cooper, S. Li, A. Puzder, P. Hyldgaard, and
     *   D. C. Langreth, Phys. Rev. B 76, 125112 (2007).
     *
     *   G. Roman-Perez and J. M. Soler, Phys. Rev. Lett. 103, 096102 (2009).
     *
     *
     * If you are using vdW-DF2, please also cite:
     *
     *   K. Lee, E. D. Murray, L. Kong, B. I. Lundqvist, and
     *   D. C. Langreth, Phys. Rev. B 82, 081101(R) (2010).
     *
     *
     * If you are calculating the stress with vdW-DF, please also cite:
     *
     *   R. Sabatini, E. Kucukbenli, B. Kolb, T. Thonhauser, and
     *   S. de Gironcoli, J. Phys.: Condens. Matter 24, 424209 (2012).
     *

     Carrying out vdW-DF run using the following parameters:

     Nqs =      20    Nr_points =    1024   r_max =   100.000
     q_mesh =
               0.00001000     0.04494208     0.09755937     0.15916263
               0.23128650     0.31572767     0.41458969     0.53033537
               0.66584808     0.82450364     1.01025438     1.22772762
               1.48234092     1.78043706     2.12944203     2.53805004
               3.01644009     3.57652955     4.23227104     5.00000000

     Gradients computed in reciprocal space

     Adding external electric field

     Computed dipole along edir(3) :
        Dipole               -1.7711 Ry au,         -4.5018 Debye
        Dipole field         -0.0063 Ry au

        Potential amp.        0.5156 Ry
        Total length         40.9758 bohr

[...]

     Starting wfc are  160 randomized atomic wfcs

     Self-consistent Calculation

     iteration #  1     ecut=    36.75 Ry     beta=0.10
     Davidson diagonalization with overlap
     ethr =  1.00E-02,  avg # of iterations =  7.7

[...]

     Magnetic moment per site:
     atom:    1    charge:   14.2028    magn:    1.6165    constr:    0.0000
     atom:    2    charge:   14.2031    magn:    1.6152    constr:    0.0000
     atom:    3    charge:   14.2031    magn:    1.6153    constr:    0.0000
     atom:    4    charge:   14.2031    magn:    1.6153    constr:    0.0000
     atom:    5    charge:   14.0742    magn:    1.6034    constr:    0.0000
     atom:    6    charge:   14.0742    magn:    1.6034    constr:    0.0000
     atom:    7    charge:   14.0733    magn:    1.6057    constr:    0.0000
     atom:    8    charge:   14.0742    magn:    1.6035    constr:    0.0000
     atom:    9    charge:   13.8980    magn:    1.5573    constr:    0.0000
     atom:   10    charge:   13.8983    magn:    1.5573    constr:    0.0000
     atom:   11    charge:   13.8984    magn:    1.5573    constr:    0.0000
     atom:   12    charge:   13.8910    magn:    1.5721    constr:    0.0000
     atom:   13    charge:    3.6881    magn:    0.0177    constr:    0.0000

     total energy              =   -3485.40090776 Ry
     Harris-Foulkes estimate   =   -3639.94809626 Ry
     estimated scf accuracy    <     854.74764964 Ry

     total magnetization       =     9.83 Bohr mag/cell
     absolute magnetization    =    10.45 Bohr mag/cell

[...]

     End of self-consistent calculation

 ------ SPIN UP ------------

          k = 0.0000 0.0000 0.0000 ( 13257 PWs)   bands (ev):

   -95.8806 -95.8544 -95.8531 -95.7765 -95.7688 -95.6650 -95.6222 -95.6050
   -95.6022 -95.2130 -95.1882 -95.1870 -59.2376 -59.2054 -59.2047 -59.1787
   -59.1514 -59.1504 -59.0616 -59.0610 -59.0484 -59.0301 -59.0294 -59.0089
   -59.0085 -58.9738 -58.9668 -58.9666 -58.9562 -58.9553 -58.9350 -58.9212
   -58.9173 -58.9146 -58.8460 -58.7996 -58.7991 -58.7834 -58.7382 -58.7377
   -58.6948 -58.6948 -58.3606 -58.3595 -58.3580 -58.2968 -58.2960 -58.2907
   -14.3705  -7.2270  -5.2368  -4.8308  -4.8284  -4.5797  -4.2579  -4.1743
    -4.1739  -4.1444  -3.9031  -3.8685  -3.8680  -3.6452  -3.6448  -3.6023
    -3.2296  -3.2260  -2.7103  -2.7053  -2.7041  -2.3623  -2.3089  -2.3080
    -2.2874  -2.2041  -2.1379  -2.1376  -1.9296  -1.9290  -1.8974  -1.8424
    -1.8422  -1.7030  -1.5997  -1.5990  -1.3870  -1.3864  -1.2480  -1.1566
    -1.1561  -1.0737  -1.0733  -0.9418  -0.7807  -0.7785  -0.6818  -0.6808
    -0.6375  -0.4572  -0.4558  -0.4287  -0.4237  -0.4229  -0.3002  -0.2951
    -0.2945  -0.0651  -0.0641  -0.0531   0.0293   0.0296   0.0935   0.1954
     0.2480   0.7885

[...]

          k =-0.5000 0.2887 0.0000 ( 13378 PWs)   bands (ev):

[...]

 ------ SPIN DOWN ----------

[...]

     the Fermi energy is     0.6975 ev

!    total energy              =   -3614.61979506 Ry
     Harris-Foulkes estimate   =   -3614.61983774 Ry
     estimated scf accuracy    <       0.00006426 Ry

     The total energy is the sum of the following terms:

     one-electron contribution =  -31890.28600743 Ry
     hartree contribution      =   15951.82572608 Ry
     xc contribution           =    -410.69779073 Ry
     ewald contribution        =   12734.61926602 Ry
     electric field correction =       0.00004178 Ry
     smearing contrib. (-TS)   =      -0.08103078 Ry

[...]

     convergence has been achieved in  34 iterations

     Forces acting on atoms (Ry/au):

     negative rho (up, down):  6.934E-04 4.472E-04
     atom    1 type  1   force =    -0.00005163    0.00019118    0.01155830
     atom    2 type  1   force =    -0.00000053   -0.00061322    0.01313327
     atom    3 type  1   force =    -0.00071620    0.00013737    0.01302288
     atom    4 type  1   force =     0.00068398    0.00013073    0.01270248
     atom    5 type  1   force =     0.00181032   -0.00170531   -0.00185108
     atom    6 type  1   force =    -0.00189561   -0.00101403   -0.00253338
     atom    7 type  1   force =     0.00070276    0.00028268   -0.00762935
     atom    8 type  1   force =    -0.00064636    0.00234153   -0.00203822
     atom    9 type  1   force =     0.00044856    0.00059712   -0.00753699
     atom   10 type  1   force =    -0.00016035    0.00040847   -0.00773705
     atom   11 type  1   force =    -0.00000479   -0.00029804   -0.00801934
     atom   12 type  1   force =    -0.00012609   -0.00042274   -0.00931134
     atom   13 type  2   force =    -0.00004407   -0.00003576   -0.00376019

     Total force =     0.016818     Total SCF correction =     0.003244
     SCF correction compared to forces is large: reduce conv_thr to get better values

     BFGS Geometry Optimization

     number of scf cycles    =   1
     number of bfgs steps    =   0

     energy   new            =   -3614.6197950577 Ry

     new trust radius        =       0.0093217876 bohr
     new conv_thr            =       0.0001000000 Ry

ATOMIC_POSITIONS (angstrom)
Co       1.253137179   0.723499087  10.000000000    0   0   0
Co       3.759411536   0.723499087  10.000000000    0   0   0
Co       2.506274357   2.893996350  10.000000000    0   0   0
Co       5.012548715   2.893996350  10.000000000    0   0   0
Co       5.012548715   1.446998175  12.046364444    0   0   0
Co       2.506274357   1.446998175  12.046364444    0   0   0
Co       6.265685894   3.617495438  12.046364444    0   0   0
Co       3.759411536   3.617495438  12.046364444    0   0   0
Co      -0.022475417  -0.012927908  14.153996971
Co       2.529005725  -0.014253410  14.153622400
Co       1.252125399   2.197356007  14.153416737
Co       3.758808246   2.169921309  14.012560024
N        1.254886912   0.724696917  15.131749401

     Writing output data file calc.save
     Check: negative starting charge=(component1):   -0.000360
     NEW-OLD atomic charge density approx. for the potential

     Check: negative/imaginary core charge=   -0.000007    0.000000
     Check: negative starting charge=(component1):   -0.000360

[...]

     energy   old            =   -3614.6197950577 Ry
     energy   new            =   -3614.6199830271 Ry

     CASE: energy  _new < energy  _old

[...]

     WARNING: bfgs curvature condition failed, Theta= 0.846
     new trust radius        =       0.0074064680 bohr
     new conv_thr            =       0.0000010000 Ry

[...]

     WARNING: bfgs curvature condition failed, Theta= 0.822
     new trust radius        =       0.0060255621 bohr
     new conv_thr            =       0.0000010000 Ry

[...]

     number of scf cycles    =  12
     number of bfgs steps    =  11

     energy   old            =   -3614.6202681909 Ry
     energy   new            =   -3614.6203043487 Ry

     CASE: energy  _new < energy  _old

     new trust radius        =       0.0101470466 bohr
     new conv_thr            =       0.0000010000 Ry

ATOMIC_POSITIONS (angstrom)
Co       1.253137179   0.723499087  10.000000000    0   0   0
Co       3.759411536   0.723499087  10.000000000    0   0   0
Co       2.506274357   2.893996350  10.000000000    0   0   0
Co       5.012548715   2.893996350  10.000000000    0   0   0
Co       5.012548715   1.446998175  12.046364444    0   0   0
Co       2.506274358   1.446998175  12.046364444    0   0   0
Co       6.265685894   3.617495437  12.046364444    0   0   0
Co       3.759411536   3.617495437  12.046364444    0   0   0
Co      -0.022548753  -0.013562981  14.130424112
Co       2.528891422  -0.014488226  14.129638021
Co       1.252340551   2.199064463  14.129358876
Co       3.758499414   2.168624420  14.000876036
N        1.254214027   0.727155262  15.109552740

     Writing output data file calc.save
     Check: negative starting charge=(component1):   -0.000363
     NEW-OLD atomic charge density approx. for the potential

     Check: negative/imaginary core charge=   -0.000007    0.000000
     Check: negative starting charge=(component1):   -0.000362

[...]

     Self-consistent Calculation

[...]

     total energy              =   -3614.62032494 Ry
     Harris-Foulkes estimate   =   -3614.62032494 Ry
     estimated scf accuracy    <       0.00000119 Ry

[...]

     iteration # 12     ecut=    36.75 Ry     beta=0.10
     Davidson diagonalization with overlap
     ethr =  5.67E-10,  avg # of iterations =  1.1

     negative rho (up, down):  6.975E-04 4.494E-04

[...]

     Adding external electric field

     Computed dipole along edir(3) :
        Dipole               -0.1304 Ry au,         -0.3315 Debye
        Dipole field         -0.0005 Ry au

        Potential amp.        0.0380 Ry
        Total length         40.9758 bohr

     Magnetic moment per site:
     atom:    1    charge:   13.7213    magn:    1.7093    constr:    0.0000
     atom:    2    charge:   13.7234    magn:    1.6828    constr:    0.0000
     atom:    3    charge:   13.7238    magn:    1.6827    constr:    0.0000
     atom:    4    charge:   13.7235    magn:    1.6831    constr:    0.0000
     atom:    5    charge:   13.7190    magn:    1.7133    constr:    0.0000
     atom:    6    charge:   13.7193    magn:    1.7131    constr:    0.0000
     atom:    7    charge:   13.7199    magn:    1.6407    constr:    0.0000
     atom:    8    charge:   13.7190    magn:    1.7133    constr:    0.0000
     atom:    9    charge:   13.7299    magn:    0.9085    constr:    0.0000
     atom:   10    charge:   13.7297    magn:    0.9017    constr:    0.0000
     atom:   11    charge:   13.7302    magn:    0.8898    constr:    0.0000
     atom:   12    charge:   13.7304    magn:    1.7491    constr:    0.0000
     atom:   13    charge:    3.6469    magn:   -0.0785    constr:    0.0000

     End of self-consistent calculation

 ------ SPIN UP ------------

[...]

 ------ SPIN DOWN ----------

[...]

          k = 0.3333-0.3849 0.0000 ( 13313 PWs)   bands (ev):

[...]

          k =-0.5000-0.2887 0.0000 ( 13378 PWs)   bands (ev):

   -93.8937 -93.8733 -93.8723 -93.3866 -93.3767 -93.3639 -93.3584 -93.2328
   -93.1867 -93.1805 -93.1668 -93.1635 -57.6702 -57.5973 -57.5597 -57.0866
   -57.0655 -57.0308 -57.0020 -56.9741 -56.9503 -56.8176 -56.8033 -56.7683
   -56.7606 -56.7524 -56.7423 -56.7293 -56.7212 -56.7106 -56.7062 -56.6370
   -56.6338 -56.6087 -56.6067 -56.5880 -56.5699 -56.5655 -56.5412 -56.5371
   -56.5268 -56.5216 -56.5020 -56.4924 -56.4881 -56.4863 -56.4523 -56.4510
   -14.4130  -5.7274  -5.4566  -4.5989  -4.3057  -3.9122  -3.4986  -3.1240
    -2.8764  -2.8196  -2.4360  -2.3861  -2.2838  -2.1338  -1.8328  -1.7804
    -1.7735  -1.7318  -1.5329  -1.5222  -1.3152  -1.1810  -1.1757  -1.1632
    -1.0969  -1.0915  -0.9028  -0.8925  -0.7593  -0.6445  -0.6001  -0.5776
    -0.5110  -0.4741  -0.2933  -0.1806  -0.1626  -0.1520  -0.1246  -0.0677
     0.0814   0.2652   0.3090   0.3759   0.4513   0.4749   0.5529   0.6126
     0.6339   0.7076   0.8148   0.8712   0.8766   0.9440   1.0921   1.1072
     1.1516   1.2349   1.3393   1.3841   1.4290   1.5476   1.5808   1.6805
     1.7619   1.9544

     the Fermi energy is     0.6875 ev

!    total energy              =   -3614.62032501 Ry
     Harris-Foulkes estimate   =   -3614.62032330 Ry
     estimated scf accuracy    <       0.00000056 Ry

     The total energy is the sum of the following terms:

     one-electron contribution =  -32002.08763428 Ry
     hartree contribution      =   16007.73772518 Ry
     xc contribution           =    -410.72339311 Ry
     ewald contribution        =   12790.53391378 Ry
     electric field correction =       0.00006041 Ry
     smearing contrib. (-TS)   =      -0.08099699 Ry

     total magnetization       =    18.21 Bohr mag/cell
     absolute magnetization    =    20.62 Bohr mag/cell

     convergence has been achieved in  12 iterations

     Forces acting on atoms (Ry/au):

     negative rho (up, down):  6.975E-04 4.494E-04
     atom    1 type  1   force =    -0.00005303   -0.00006433    0.01047067
     atom    2 type  1   force =     0.00002425   -0.00048010    0.01169388
     atom    3 type  1   force =    -0.00040950    0.00023984    0.01166681
     atom    4 type  1   force =     0.00039977    0.00020763    0.01170481
     atom    5 type  1   force =     0.00143908   -0.00087447   -0.00966800
     atom    6 type  1   force =    -0.00149479   -0.00096872   -0.00966459
     atom    7 type  1   force =     0.00000546    0.00024214   -0.01650842
     atom    8 type  1   force =     0.00005615    0.00166831   -0.00959082
     atom    9 type  1   force =     0.00106857    0.00078166    0.00097867
     atom   10 type  1   force =    -0.00121549    0.00084383    0.00111798
     atom   11 type  1   force =    -0.00001990   -0.00153658    0.00091220
     atom   12 type  1   force =     0.00008669   -0.00000274   -0.00163857
     atom   13 type  2   force =     0.00011274   -0.00005648   -0.00147462

     Total force =     0.003772     Total SCF correction =     0.001962
     SCF correction compared to forces is large: reduce conv_thr to get better values

     bfgs converged in  13 scf cycles and  12 bfgs steps
     (criteria: energy <  1.0E+12, force <  1.9E-03)

     End of BFGS Geometry Optimization

     Final energy   =   -3614.6203250122 Ry
Begin final coordinates

ATOMIC_POSITIONS (angstrom)
Co       1.253137179   0.723499087  10.000000000    0   0   0
Co       3.759411536   0.723499087  10.000000000    0   0   0
Co       2.506274357   2.893996350  10.000000000    0   0   0
Co       5.012548715   2.893996350  10.000000000    0   0   0
Co       5.012548715   1.446998175  12.046364444    0   0   0
Co       2.506274358   1.446998175  12.046364444    0   0   0
Co       6.265685894   3.617495437  12.046364444    0   0   0
Co       3.759411536   3.617495437  12.046364444    0   0   0
Co      -0.022548753  -0.013562981  14.130424112
Co       2.528891422  -0.014488226  14.129638021
Co       1.252340551   2.199064463  14.129358876
Co       3.758499414   2.168624420  14.000876036
N        1.254214027   0.727155262  15.109552740
End final coordinates

     Writing output data file calc.save

     General routines

     Parallel routines

   This run was terminated on:  18:41: 8  11Jan2019

   JOB DONE.
Job  /afs/slac/g/suncat/bin/suncat-tsmpirun -x LD_LIBRARY_PATH -wdir /tmp/qe_673096fvdfcmgz_scratch pw.x -npool 4 -in pw.pwi

TID   HOST_NAME   COMMAND_LINE            STATUS            TERMINATION_TIME
00000 suncat0027 pw.x -npool 4 -i  Done                     01/11/2019 18:41:08
00001 suncat0027 pw.x -npool 4 -i  Done                     01/11/2019 18:41:08
00002 suncat0027 pw.x -npool 4 -i  Done                     01/11/2019 18:41:08
00003 suncat0027 pw.x -npool 4 -i  Done                     01/11/2019 18:41:08
00004 suncat0027 pw.x -npool 4 -i  Done                     01/11/2019 18:41:08
00005 suncat0027 pw.x -npool 4 -i  Done                     01/11/2019 18:41:08
00006 suncat0027 pw.x -npool 4 -i  Done                     01/11/2019 18:41:08
00007 suncat0027 pw.x -npool 4 -i  Done                     01/11/2019 18:41:08
00008 suncat0207 pw.x -npool 4 -i  Done                     01/11/2019 18:41:08
00009 suncat0207 pw.x -npool 4 -i  Done                     01/11/2019 18:41:08
00010 suncat0207 pw.x -npool 4 -i  Done                     01/11/2019 18:41:08
00011 suncat0207 pw.x -npool 4 -i  Done                     01/11/2019 18:41:08
00012 suncat0207 pw.x -npool 4 -i  Done                     01/11/2019 18:41:08
00013 suncat0207 pw.x -npool 4 -i  Done                     01/11/2019 18:41:08
00014 suncat0207 pw.x -npool 4 -i  Done                     01/11/2019 18:41:08
00015 suncat0207 pw.x -npool 4 -i  Done                     01/11/2019 18:41:08
00016 suncat0206 pw.x -npool 4 -i  Done                     01/11/2019 18:41:08
00017 suncat0206 pw.x -npool 4 -i  Done                     01/11/2019 18:41:08
00018 suncat0206 pw.x -npool 4 -i  Done                     01/11/2019 18:41:08
00019 suncat0206 pw.x -npool 4 -i  Done                     01/11/2019 18:41:08
00020 suncat0206 pw.x -npool 4 -i  Done                     01/11/2019 18:41:08
00021 suncat0206 pw.x -npool 4 -i  Done                     01/11/2019 18:41:08
00022 suncat0206 pw.x -npool 4 -i  Done                     01/11/2019 18:41:08
00023 suncat0206 pw.x -npool 4 -i  Done                     01/11/2019 18:41:08
00024 suncat0204 pw.x -npool 4 -i  Done                     01/11/2019 18:41:08
00025 suncat0204 pw.x -npool 4 -i  Done                     01/11/2019 18:41:08
00026 suncat0204 pw.x -npool 4 -i  Done                     01/11/2019 18:41:08
00027 suncat0204 pw.x -npool 4 -i  Done                     01/11/2019 18:41:08
00028 suncat0204 pw.x -npool 4 -i  Done                     01/11/2019 18:41:08
00029 suncat0204 pw.x -npool 4 -i  Done                     01/11/2019 18:41:08
00030 suncat0204 pw.x -npool 4 -i  Done                     01/11/2019 18:41:08
00031 suncat0204 pw.x -npool 4 -i  Done                     01/11/2019 18:41:08