     Program PWSCF v.5.1rc2 (svn rev. 11289) starts on  2May2018 at 23: 1:22

     Current dimensions of program PWSCF are:
     Max number of different atomic species (ntypx) = 10
     Max number of k-points (npk) =  40000
     Max angular momentum in pseudopotentials (lmaxx) =  3
     Presently stress not available with electric field

     IMPORTANT: XC functional enforced from input :
     Exchange-correlation      = BEEF-VDW ( 1  4 27 13 2)
     Any further DFT definition will be discarded
     Please, verify this is what you really want

     Subspace diagonalization in iterative solution of the eigenvalue problem:
     a serial algorithm will be used

     bravais-lattice index     =            0
     lattice parameter (alat)  =       1.8897  a.u.
     unit-cell volume          =    4515.4205 (a.u.)^3
     number of atoms/cell      =           13
     number of atomic types    =            2
     number of electrons       =       246.00
     number of Kohn-Sham states=          133
     kinetic-energy cutoff     =      36.7493  Ry
     charge density cutoff     =     367.4932  Ry
     convergence threshold     =      1.0E-05
     mixing beta               =       0.3000
     number of iterations used =           10  plain     mixing
     Exchange-correlation      = BEEF-VDW ( 1  4 27 13 2)
     nstep                     =           50

     celldm(1)=   1.889726  celldm(2)=   0.000000  celldm(3)=   0.000000
     celldm(4)=   0.000000  celldm(5)=   0.000000  celldm(6)=   0.000000

     crystal axes: (cart. coord. in units of alat)
               a(1) = (   5.606773   0.000000   0.000000 )
               a(2) = (   2.803387   4.855608   0.000000 )
               a(3) = (   0.000000   0.000000  24.577911 )

     reciprocal axes: (cart. coord. in units 2 pi/alat)
               b(1) = (  0.178356 -0.102974  0.000000 )
               b(2) = (  0.000000  0.205947  0.000000 )
               b(3) = (  0.000000  0.000000  0.040687 )

     PseudoPot. # 1 for Zn read from file:
     /u/if/mamunm/psp/gbrv1.5pbe/Zn.UPF
     MD5 check sum: df62231357ef9e81f77b2b3087fa5675
     Pseudo is Ultrasoft, Zval = 20.0
     Generated by new atomic code, or converted to UPF format
     Using radial grid of  943 points,  6 beta functions with:
                l(1) =   0
                l(2) =   0
                l(3) =   1
                l(4) =   1
                l(5) =   2
                l(6) =   2
     Q(r) pseudized with  8 coefficients,  rinner =    1.100   1.100   1.100
                                                       1.100   1.100

     PseudoPot. # 2 for O  read from file:
     /u/if/mamunm/psp/gbrv1.5pbe/O.UPF
     MD5 check sum: 734c27235a0248c51dbae37a1fbe46ec
     Pseudo is Ultrasoft + core correction, Zval =  6.0
     Generated by new atomic code, or converted to UPF format
     Using radial grid of  737 points,  5 beta functions with:
                l(1) =   0
                l(2) =   0
                l(3) =   1
                l(4) =   1
                l(5) =   2
     Q(r) pseudized with  8 coefficients,  rinner =    0.900   0.900   0.900
                                                       0.900   0.900

     vdW kernel table read from file vdW_kernel_table
     MD5 check sum: 095c7af220d748ca6e76c0b4c6cfb241

     atomic species   valence    mass     pseudopotential
        Zn1           20.00    65.38000     Zn( 1.00)
        O1             6.00    15.99900     O ( 1.00)

     No symmetry found

   Cartesian axes

     site n.     atom                  positions (alat units)
         1           Zn1 tau(   1) = (   1.4016933   0.8092680  10.0000000  )
         2           Zn1 tau(   2) = (   4.2050800   0.8092680  10.0000000  )
         3           Zn1 tau(   3) = (   2.8033867   3.2370721  10.0000000  )
         4           Zn1 tau(   4) = (   5.6067733   3.2370721  10.0000000  )
         5           Zn1 tau(   5) = (   5.6067733   1.6185360  12.2889556  )
         6           Zn1 tau(   6) = (   2.8033867   1.6185360  12.2889556  )
         7           Zn1 tau(   7) = (   7.0084667   4.0463401  12.2889556  )
         8           Zn1 tau(   8) = (   4.2050800   4.0463401  12.2889556  )
         9           Zn1 tau(   9) = (   0.0000000   0.0000000  14.5779113  )
        10           Zn1 tau(  10) = (   2.8033867   0.0000000  14.5779113  )
        11           Zn1 tau(  11) = (   1.4016933   2.4278041  14.5779113  )
        12           Zn1 tau(  12) = (   4.2050800   2.4278041  14.5779113  )
        13           O1  tau(  13) = (   2.8033867   1.6185360  15.7999113  )

     number of k points=    20  Fermi-Dirac smearing, width (Ry)=  0.0110
                       cart. coord. in units 2pi/alat
        k(    1) = (   0.0000000   0.0000000   0.0000000), wk =   0.0555556
        k(    2) = (   0.0000000   0.0343246   0.0000000), wk =   0.1111111
        k(    3) = (   0.0000000   0.0686491   0.0000000), wk =   0.1111111
        k(    4) = (   0.0000000  -0.1029737   0.0000000), wk =   0.0555556
        k(    5) = (   0.0297260  -0.0171623   0.0000000), wk =   0.1111111
        k(    6) = (   0.0297260   0.0171623   0.0000000), wk =   0.1111111
        k(    7) = (   0.0297260   0.0514869   0.0000000), wk =   0.1111111
        k(    8) = (   0.0297260  -0.1201360   0.0000000), wk =   0.1111111
        k(    9) = (   0.0297260  -0.0858114   0.0000000), wk =   0.1111111
        k(   10) = (   0.0297260  -0.0514869   0.0000000), wk =   0.1111111
        k(   11) = (   0.0594519  -0.0343246   0.0000000), wk =   0.1111111
        k(   12) = (   0.0594519   0.0000000   0.0000000), wk =   0.1111111
        k(   13) = (   0.0594519   0.0343246   0.0000000), wk =   0.1111111
        k(   14) = (   0.0594519  -0.1372983   0.0000000), wk =   0.1111111
        k(   15) = (   0.0594519  -0.1029737   0.0000000), wk =   0.1111111
        k(   16) = (   0.0594519  -0.0686491   0.0000000), wk =   0.1111111
        k(   17) = (  -0.0891779   0.0514869   0.0000000), wk =   0.0555556
        k(   18) = (  -0.0891779   0.0858114   0.0000000), wk =   0.1111111
        k(   19) = (  -0.0891779   0.1201360   0.0000000), wk =   0.1111111
        k(   20) = (  -0.0891779  -0.0514869   0.0000000), wk =   0.0555556

     Largest allocated arrays     est. size (Mb)     dimensions
     Largest temporary arrays     est. size (Mb)     dimensions

     Initial potential from superposition of free atoms
     Check: negative starting charge=   -0.000927

     starting charge  245.99831, renormalised to  246.00000

     negative rho (up, down):  9.267E-04 0.000E+00

     *
     * You are using vdW-DF for exchange-correlation in this calculation.
     * Please cite the following three references that made this development
     * possible:
     *
     *   M. Dion, H. Rydberg, E. Schroder, D. C. Langreth, and
     *   B. I. Lundqvist, Phys. Rev. Lett. 92, 246401 (2004).
     *
     *   T. Thonhauser, V. R. Cooper, S. Li, A. Puzder, P. Hyldgaard, and
     *   D. C. Langreth, Phys. Rev. B 76, 125112 (2007).
     *
     *   G. Roman-Perez and J. M. Soler, Phys. Rev. Lett. 103, 096102 (2009).
     *
     *
     * If you are using vdW-DF2, please also cite:
     *
     *   K. Lee, E. D. Murray, L. Kong, B. I. Lundqvist, and
     *   D. C. Langreth, Phys. Rev. B 82, 081101(R) (2010).
     *
     *
     * If you are calculating the stress with vdW-DF, please also cite:
     *
     *   R. Sabatini, E. Kucukbenli, B. Kolb, T. Thonhauser, and
     *   S. de Gironcoli, J. Phys.: Condens. Matter 24, 424209 (2012).
     *

     Carrying out vdW-DF run using the following parameters:

     Nqs =      20    Nr_points =    1024   r_max =   100.000
     q_mesh =
               0.00001000     0.04494208     0.09755937     0.15916263
               0.23128650     0.31572767     0.41458969     0.53033537
               0.66584808     0.82450364     1.01025438     1.22772762
               1.48234092     1.78043706     2.12944203     2.53805004
               3.01644009     3.57652955     4.23227104     5.00000000

     Gradients computed in reciprocal space

     Adding external electric field

     Computed dipole along edir(3) :
        Dipole               -0.0003 Ry au,         -0.0007 Debye
        Dipole field         -0.0000 Ry au

        Potential amp.        0.0001 Ry
        Total length         45.2844 bohr

     Starting wfc are  160 randomized atomic wfcs

     Self-consistent Calculation

     iteration #  1     ecut=    36.75 Ry     beta=0.30
     Davidson diagonalization with overlap
     ethr =  1.00E-02,  avg # of iterations =  2.0

     Threshold (ethr) on eigenvalues was too large:
     Diagonalizing with lowered threshold

     Davidson diagonalization with overlap
     ethr =  6.78E-04,  avg # of iterations =  1.4

[...]

     total energy              =   -5585.34140923 Ry
     Harris-Foulkes estimate   =   -5586.08729620 Ry
     estimated scf accuracy    <       1.65699298 Ry

[...]

     End of self-consistent calculation

          k = 0.0000 0.0000 0.0000 ( 16931 PWs)   bands (ev):

  -126.7901-126.7354-126.7345-126.7345-126.5533-126.5524-126.5524-126.5306
  -126.4722-126.3222-126.3213-126.3213 -80.9759 -80.9603 -80.9603 -80.9156
   -80.9156 -80.9154 -80.9137 -80.9132 -80.9132 -80.9108 -80.9025 -80.9025
   -80.7415 -80.7406 -80.7406 -80.7320 -80.7304 -80.7304 -80.7230 -80.7196
   -80.7196 -80.7133 -80.7041 -80.7041 -80.6598 -80.6460 -80.6460 -80.5487
   -80.5431 -80.5431 -80.5298 -80.5298 -80.5256 -80.4469 -80.4402 -80.4402
   -17.6460  -9.4280  -8.2974  -8.2970  -8.2970  -8.2830  -8.2074  -8.2074
    -8.1810  -8.1344  -8.0952  -8.0864  -8.0864  -7.9366  -7.9366  -7.9240
    -7.7556  -7.7556  -7.7160  -7.7080  -7.7080  -7.6750  -7.6552  -7.6552
    -7.6407  -7.6407  -7.6226  -7.5839  -7.5839  -7.5320  -7.4707  -7.4707
    -7.3571  -7.3571  -7.2748  -7.2748  -7.2727  -7.2593  -7.2593  -7.2422
    -7.2201  -7.2201  -7.1791  -7.1791  -7.1713  -7.1644  -7.1644  -7.1591
    -7.1126  -7.1125  -7.0421  -7.0263  -7.0094  -7.0094  -6.9826  -6.9826
    -6.9686  -6.9619  -6.9619  -6.8229  -6.8229  -6.8054  -6.7707  -3.9006
    -3.3990  -3.3990  -3.0778  -2.5028  -2.3198  -2.3198  -2.0892  -2.0892
    -1.7984  -1.0749  -1.0749  -1.0400  -0.0644   0.4257   0.4257   0.5424
     1.8891   2.2780   2.2780   2.6932   3.1487

[...]

          k =-0.0892 0.0515 0.0000 ( 17028 PWs)   bands (ev):

[...]

     the Fermi energy is     0.0337 ev

!    total energy              =   -5585.82349041 Ry
     Harris-Foulkes estimate   =   -5585.82346533 Ry
     estimated scf accuracy    <       0.00000560 Ry

     The total energy is the sum of the following terms:

     one-electron contribution =  -36284.88808224 Ry
     hartree contribution      =   18121.10901596 Ry
     xc contribution           =    -528.48473395 Ry
     ewald contribution        =   13106.46617181 Ry
     electric field correction =       0.00037085 Ry
     smearing contrib. (-TS)   =      -0.02623285 Ry

     convergence has been achieved in  10 iterations

 BEEF-vdW xc energy contributions
           1 :   -469.337320991385
           2 :    425.139818107579
           3 :   -351.098768453909
           4 :    268.760063222812
           5 :   -197.077536752195
           6 :    145.349231935269
           7 :   -112.052977118251
           8 :    89.2044345251298
           9 :   -68.8819385432892
          10 :    47.8275176267688
          11 :   -27.8646900366463
          12 :    12.8264295875864
          13 :   -4.78047465687229
          14 :    2.29508690808990
          15 :   -1.61769163373879
          16 :  -0.558812061196249
          17 :    4.98662674614894
          18 :   -9.85821343809624
          19 :    12.6422315608269
          20 :   -12.1991937584958
          21 :    9.59195227896078
          22 :   -7.14458774216683
          23 :    6.63962755099192
          24 :   -8.09145693829919
          25 :    9.95560044980107
          26 :   -10.4748487040893
          27 :    9.04203879438433
          28 :   -6.56151586852076
          29 :    4.63328124367467
          30 :   -4.28286306746190
          31 :   -36.4809783152164
          32 :   -24.8588360505388

     Forces acting on atoms (Ry/au):

     negative rho (up, down):  1.144E-03 0.000E+00
     atom    1 type  1   force =    -0.00027800   -0.00016665   -0.01056229
     atom    2 type  1   force =     0.00027777   -0.00016401   -0.01056122
     atom    3 type  1   force =     0.00000408    0.00032606   -0.01055903
     atom    4 type  1   force =    -0.00000578    0.00000662   -0.00794397
     atom    5 type  1   force =    -0.00000146    0.00132338    0.00575473
     atom    6 type  1   force =     0.00000258    0.00000379   -0.00557912
     atom    7 type  1   force =    -0.00114793   -0.00066216    0.00575112
     atom    8 type  1   force =     0.00114380   -0.00066140    0.00574782
     atom    9 type  1   force =    -0.00000556   -0.00000072   -0.00110082
     atom   10 type  1   force =     0.00001018   -0.01726148    0.02584022
     atom   11 type  1   force =    -0.01495684    0.00863054    0.02584280
     atom   12 type  1   force =     0.01495598    0.00862639    0.02583421
     atom   13 type  2   force =     0.00000118   -0.00000036   -0.04846446

     Total force =     0.072438     Total SCF correction =     0.013144
     SCF correction compared to forces is large: reduce conv_thr to get better values

     entering subroutine stress ...

     negative rho (up, down):  1.144E-03 0.000E+00
          total   stress  (Ry/bohr**3)                   (kbar)     P=  -16.07
  -0.00015167  -0.00000000  -0.00000000        -22.31     -0.00     -0.00
  -0.00000000  -0.00015167  -0.00000000         -0.00    -22.31     -0.00
  -0.00000000  -0.00000000  -0.00002432         -0.00     -0.00     -3.58

     BFGS Geometry Optimization

     number of scf cycles    =   1
     number of bfgs steps    =   0

     energy   new            =   -5585.8234904095 Ry

     new trust radius        =       0.0484644587 bohr
     new conv_thr            =       0.0000099958 Ry

ATOMIC_POSITIONS (crystal)
Zn1      0.166666667   0.166666667   0.406869400    0   0   0
Zn1      0.666666667   0.166666667   0.406869400    0   0   0
Zn1      0.166666667   0.666666667   0.406869400    0   0   0
Zn1      0.666666667   0.666666667   0.406869400    0   0   0
Zn1      0.833333333   0.333333333   0.500000000    0   0   0
Zn1      0.333333333   0.333333333   0.500000000    0   0   0
Zn1      0.833333333   0.833333333   0.500000000    0   0   0
Zn1      0.333333333   0.833333333   0.500000000    0   0   0
Zn1     -0.000000486  -0.000000079   0.593106899
Zn1      0.500941562  -0.001881203   0.593686956
Zn1     -0.001881943   0.500940580   0.593687011
Zn1      0.500941508   0.500940128   0.593686826
O1       0.333333464   0.333333294   0.641806572

     Writing output data file calc.save
     Check: negative starting charge=   -0.000927
     NEW-OLD atomic charge density approx. for the potential
     Check: negative starting charge=   -0.000924

[...]

     energy   old            =   -5585.8234904095 Ry
     energy   new            =   -5585.8285716077 Ry

     CASE: energy  _new < energy  _old

     WARNING: bfgs curvature condition failed, Theta= 0.943
     new trust radius        =       0.0726966880 bohr
     new conv_thr            =       0.0000001000 Ry

[...]

     Total force =     0.058499     Total SCF correction =     0.000772

[...]

     Total force =     0.012798     Total SCF correction =     0.000761

[...]

     WARNING: bfgs curvature condition failed, Theta= 0.988
     new trust radius        =       0.0066503703 bohr
     new conv_thr            =       0.0000001000 Ry

[...]

     number of scf cycles    =  19
     number of bfgs steps    =  18

     energy   old            =   -5585.8648555761 Ry
     energy   new            =   -5585.8648793195 Ry

     CASE: energy  _new < energy  _old

     new trust radius        =       0.0149633331 bohr
     new conv_thr            =       0.0000001000 Ry

ATOMIC_POSITIONS (crystal)
Zn1      0.166666667   0.166666667   0.406869400    0   0   0
Zn1      0.666666667   0.166666667   0.406869400    0   0   0
Zn1      0.166666667   0.666666667   0.406869400    0   0   0
Zn1      0.666666667   0.666666667   0.406869400    0   0   0
Zn1      0.833333333   0.333333333   0.500000000    0   0   0
Zn1      0.333333333   0.333333333   0.500000000    0   0   0
Zn1      0.833333333   0.833333333   0.500000000    0   0   0
Zn1      0.333333333   0.833333333   0.500000000    0   0   0
Zn1     -0.000000748   0.000001119   0.589878803
Zn1      0.517745887  -0.035493575   0.607082207
Zn1     -0.035493678   0.517747836   0.607082741
Zn1      0.517746552   0.517746888   0.607082501
O1       0.333333427   0.333332934   0.635537083

     Writing output data file calc.save
     Check: negative starting charge=   -0.000890
     NEW-OLD atomic charge density approx. for the potential
     Check: negative starting charge=   -0.000889

[...]

     Self-consistent Calculation

[...]

     Threshold (ethr) on eigenvalues was too large:
     Diagonalizing with lowered threshold

     Davidson diagonalization with overlap
     ethr =  9.56E-10,  avg # of iterations =  2.4

[...]

     total energy              =   -5585.86491355 Ry
     Harris-Foulkes estimate   =   -5585.86491341 Ry
     estimated scf accuracy    <       0.00000023 Ry

     iteration #  6     ecut=    36.75 Ry     beta=0.30
     Davidson diagonalization with overlap
     ethr =  9.36E-11,  avg # of iterations =  2.0

[...]

     negative rho (up, down):  1.084E-03 0.000E+00

     Adding external electric field

     Computed dipole along edir(3) :
        Dipole               -0.1241 Ry au,         -0.3154 Debye
        Dipole field         -0.0003 Ry au

        Potential amp.        0.0313 Ry
        Total length         45.2844 bohr

     End of self-consistent calculation

[...]

          k = 0.0595-0.0686 0.0000 ( 16986 PWs)   bands (ev):

[...]

          k =-0.0892-0.0515 0.0000 ( 17028 PWs)   bands (ev):

  -126.3785-126.3782-126.3779-126.3624-126.2462-126.2459-126.2456-126.2439
  -126.1247-125.9731-125.9706-125.9706 -80.5589 -80.5573 -80.5570 -80.5566
   -80.5561 -80.5555 -80.5538 -80.5525 -80.5510 -80.5467 -80.5331 -80.5319
   -80.4352 -80.4349 -80.4345 -80.4287 -80.4243 -80.4230 -80.4197 -80.4183
   -80.4181 -80.4153 -80.4142 -80.4110 -80.3118 -80.2963 -80.2962 -80.2015
   -80.1949 -80.1946 -80.1772 -80.1766 -80.1672 -80.1116 -80.0924 -80.0912
   -18.1058  -7.9490  -7.8270  -7.7958  -7.6839  -7.6822  -7.6540  -7.6505
    -7.6051  -7.6022  -7.5640  -7.5556  -7.5493  -7.5209  -7.4425  -7.4175
    -7.4132  -7.3912  -7.3520  -7.3258  -7.3158  -7.3018  -7.2708  -7.2569
    -7.2553  -7.2516  -7.2380  -7.2182  -7.2063  -7.1828  -7.1527  -7.1451
    -7.1309  -7.0975  -7.0954  -7.0895  -7.0873  -7.0852  -7.0383  -7.0286
    -6.9962  -6.9901  -6.9663  -6.9590  -6.9389  -6.9358  -6.9283  -6.8921
    -6.8856  -6.8554  -6.8482  -6.8456  -6.8278  -6.7691  -6.7653  -6.7323
    -6.6953  -6.6891  -6.6812  -6.6760  -6.6210  -6.5115  -6.3608  -5.5074
    -4.7313  -4.1601  -3.5727  -3.4637  -3.1326  -2.5514  -2.4647  -1.7417
    -0.9683  -0.3800   0.7282   1.0972   1.2415   2.1672   3.0575   3.1528
     3.2842   3.4682   3.7618   4.2149   4.6207

     the Fermi energy is     0.3888 ev

!    total energy              =   -5585.86491354 Ry
     Harris-Foulkes estimate   =   -5585.86491361 Ry
     estimated scf accuracy    <          9.0E-09 Ry

     The total energy is the sum of the following terms:

     one-electron contribution =  -35341.72730115 Ry
     hartree contribution      =   17652.20197752 Ry
     xc contribution           =    -528.51162989 Ry
     ewald contribution        =   12632.19171208 Ry
     electric field correction =       0.00004285 Ry
     smearing contrib. (-TS)   =      -0.01971496 Ry

     convergence has been achieved in   6 iterations

 BEEF-vdW xc energy contributions
           1 :   -469.363745626447
           2 :    425.119066350460
           3 :   -350.978852499502
           4 :    268.518136999764
           5 :   -196.742288933482
           6 :    144.980150169110
           7 :   -111.706315183744
           8 :    88.9150973263142
           9 :   -68.6639198027143
          10 :    47.6793899797503
          11 :   -27.7693006084274
          12 :    12.7510959486954
          13 :   -4.68990291562216
          14 :    2.17196933679321
          15 :   -1.47531120127530
          16 :  -0.679648816539441
          17 :    5.04003115798946
          18 :   -9.82855126276309
          19 :    12.5653584330084
          20 :   -12.1452565542972
          21 :    9.61640839178506
          22 :   -7.24316667964308
          23 :    6.74498567181359
          24 :   -8.11862896060961
          25 :    9.86437760940913
          26 :   -10.3042840261514
          27 :    8.89048497348915
          28 :   -6.52030421708974
          29 :    4.72016349048715
          30 :   -4.42799326752072
          31 :   -36.4792319571419
          32 :   -24.8362647160916

     Forces acting on atoms (Ry/au):

     negative rho (up, down):  1.084E-03 0.000E+00
     atom    1 type  1   force =    -0.00029336   -0.00016941   -0.01188959
     atom    2 type  1   force =     0.00029337   -0.00016940   -0.01188958
     atom    3 type  1   force =     0.00000003    0.00033876   -0.01188959
     atom    4 type  1   force =    -0.00000001    0.00000002   -0.00712113
     atom    5 type  1   force =    -0.00000003    0.00483775    0.01176251
     atom    6 type  1   force =     0.00000002   -0.00000000    0.00480181
     atom    7 type  1   force =    -0.00418956   -0.00241881    0.01176266
     atom    8 type  1   force =     0.00418952   -0.00241882    0.01176263
     atom    9 type  1   force =    -0.00000001   -0.00000031    0.00173417
     atom   10 type  1   force =     0.00000006    0.00083149    0.00048029
     atom   11 type  1   force =     0.00071954   -0.00041556    0.00048046
     atom   12 type  1   force =    -0.00071996   -0.00041583    0.00048042
     atom   13 type  2   force =     0.00000040    0.00000011   -0.00047506

     Total force =     0.002449     Total SCF correction =     0.000382
     SCF correction compared to forces is large: reduce conv_thr to get better values

     entering subroutine stress ...

     negative rho (up, down):  1.084E-03 0.000E+00
          total   stress  (Ry/bohr**3)                   (kbar)     P=  -13.48
  -0.00013286  -0.00000000   0.00000000        -19.54     -0.00      0.00
  -0.00000000  -0.00013286  -0.00000000         -0.00    -19.54     -0.00
   0.00000000  -0.00000000  -0.00000923          0.00     -0.00     -1.36

     bfgs converged in  20 scf cycles and  19 bfgs steps
     (criteria: energy <  1.0E+00, force <  1.9E-03)

     End of BFGS Geometry Optimization

     Final energy   =   -5585.8649135437 Ry
Begin final coordinates

ATOMIC_POSITIONS (crystal)
Zn1      0.166666667   0.166666667   0.406869400    0   0   0
Zn1      0.666666667   0.166666667   0.406869400    0   0   0
Zn1      0.166666667   0.666666667   0.406869400    0   0   0
Zn1      0.666666667   0.666666667   0.406869400    0   0   0
Zn1      0.833333333   0.333333333   0.500000000    0   0   0
Zn1      0.333333333   0.333333333   0.500000000    0   0   0
Zn1      0.833333333   0.833333333   0.500000000    0   0   0
Zn1      0.333333333   0.833333333   0.500000000    0   0   0
Zn1     -0.000000748   0.000001119   0.589878803
Zn1      0.517745887  -0.035493575   0.607082207
Zn1     -0.035493678   0.517747836   0.607082741
Zn1      0.517746552   0.517746888   0.607082501
O1       0.333333427   0.333332934   0.635537083
End final coordinates

     Writing output data file calc.save

     General routines

     Parallel routines

   This run was terminated on:   0:43:37   3May2018

   JOB DONE.
Job  /afs/slac/g/suncat/bin/suncat-tsmpirun -x LD_LIBRARY_PATH -wdir /scratch/qe520496_5HN2x pw.x -npool 4 -in pw.inp

TID   HOST_NAME   COMMAND_LINE            STATUS            TERMINATION_TIME
00000 suncat0058 pw.x -npool 4 -i  Done                     05/03/2018 00:43:37
00001 suncat0058 pw.x -npool 4 -i  Done                     05/03/2018 00:43:37
00002 suncat0058 pw.x -npool 4 -i  Done                     05/03/2018 00:43:37
00003 suncat0058 pw.x -npool 4 -i  Done                     05/03/2018 00:43:37
00004 suncat0058 pw.x -npool 4 -i  Done                     05/03/2018 00:43:37
00005 suncat0058 pw.x -npool 4 -i  Done                     05/03/2018 00:43:37
00006 suncat0058 pw.x -npool 4 -i  Done                     05/03/2018 00:43:37
00007 suncat0058 pw.x -npool 4 -i  Done                     05/03/2018 00:43:37
00008 suncat0052 pw.x -npool 4 -i  Done                     05/03/2018 00:43:37
00009 suncat0052 pw.x -npool 4 -i  Done                     05/03/2018 00:43:37
00010 suncat0052 pw.x -npool 4 -i  Done                     05/03/2018 00:43:37
00011 suncat0052 pw.x -npool 4 -i  Done                     05/03/2018 00:43:37
00012 suncat0052 pw.x -npool 4 -i  Done                     05/03/2018 00:43:37
00013 suncat0052 pw.x -npool 4 -i  Done                     05/03/2018 00:43:37
00014 suncat0052 pw.x -npool 4 -i  Done                     05/03/2018 00:43:37
00015 suncat0052 pw.x -npool 4 -i  Done                     05/03/2018 00:43:37
00016 suncat0238 pw.x -npool 4 -i  Done                     05/03/2018 00:43:37
00017 suncat0238 pw.x -npool 4 -i  Done                     05/03/2018 00:43:37
00018 suncat0238 pw.x -npool 4 -i  Done                     05/03/2018 00:43:37
00019 suncat0238 pw.x -npool 4 -i  Done                     05/03/2018 00:43:37
00020 suncat0238 pw.x -npool 4 -i  Done                     05/03/2018 00:43:37
00021 suncat0238 pw.x -npool 4 -i  Done                     05/03/2018 00:43:37
00022 suncat0238 pw.x -npool 4 -i  Done                     05/03/2018 00:43:37
00023 suncat0238 pw.x -npool 4 -i  Done                     05/03/2018 00:43:37
00024 suncat0218 pw.x -npool 4 -i  Done                     05/03/2018 00:43:37
00025 suncat0218 pw.x -npool 4 -i  Done                     05/03/2018 00:43:37
00026 suncat0218 pw.x -npool 4 -i  Done                     05/03/2018 00:43:37
00027 suncat0218 pw.x -npool 4 -i  Done                     05/03/2018 00:43:37
00028 suncat0218 pw.x -npool 4 -i  Done                     05/03/2018 00:43:37
00029 suncat0218 pw.x -npool 4 -i  Done                     05/03/2018 00:43:37
00030 suncat0218 pw.x -npool 4 -i  Done                     05/03/2018 00:43:37
00031 suncat0218 pw.x -npool 4 -i  Done                     05/03/2018 00:43:37