     Program PWSCF v.5.1rc2 (svn rev. 11289) starts on 21Apr2018 at 22:11:58

     Current dimensions of program PWSCF are:
     Max number of different atomic species (ntypx) = 10
     Max number of k-points (npk) =  40000
     Max angular momentum in pseudopotentials (lmaxx) =  3
     Presently stress not available with electric field

     IMPORTANT: XC functional enforced from input :
     Exchange-correlation      = BEEF-VDW ( 1  4 27 13 2)
     Any further DFT definition will be discarded
     Please, verify this is what you really want

     Subspace diagonalization in iterative solution of the eigenvalue problem:
     a serial algorithm will be used

     bravais-lattice index     =            0
     lattice parameter (alat)  =       1.8897  a.u.
     unit-cell volume          =    4569.9960 (a.u.)^3
     number of atoms/cell      =           14
     number of atomic types    =            3
     number of electrons       =       198.00
     number of Kohn-Sham states=          109
     kinetic-energy cutoff     =      36.7493  Ry
     charge density cutoff     =     367.4932  Ry
     convergence threshold     =      1.0E-05
     mixing beta               =       0.3000
     number of iterations used =           10  plain     mixing
     Exchange-correlation      = BEEF-VDW ( 1  4 27 13 2)
     nstep                     =           50

     celldm(1)=   1.889726  celldm(2)=   0.000000  celldm(3)=   0.000000
     celldm(4)=   0.000000  celldm(5)=   0.000000  celldm(6)=   0.000000

     crystal axes: (cart. coord. in units of alat)
               a(1) = (   5.637663   0.000000   0.000000 )
               a(2) = (   2.818831   4.882359   0.000000 )
               a(3) = (   0.000000   0.000000  24.603132 )

     reciprocal axes: (cart. coord. in units 2 pi/alat)
               b(1) = (  0.177378 -0.102410  0.000000 )
               b(2) = (  0.000000  0.204819  0.000000 )
               b(3) = (  0.000000  0.000000  0.040645 )

     PseudoPot. # 1 for Pd read from file:
     /u/if/mamunm/psp/gbrv1.5pbe/Pd.UPF
     MD5 check sum: 2d733d2bc2cbfd217af676df1668a4bc
     Pseudo is Ultrasoft + core correction, Zval = 16.0
     Generated by new atomic code, or converted to UPF format
     Using radial grid of  887 points,  6 beta functions with:
                l(1) =   0
                l(2) =   0
                l(3) =   1
                l(4) =   1
                l(5) =   2
                l(6) =   2
     Q(r) pseudized with  8 coefficients,  rinner =    1.130   1.130   1.130
                                                       1.130   1.130

     PseudoPot. # 2 for N  read from file:
     /u/if/mamunm/psp/gbrv1.5pbe/N.UPF
     MD5 check sum: 95339753478d7afb44899504a8723017
     Pseudo is Ultrasoft + core correction, Zval =  5.0
     Generated by new atomic code, or converted to UPF format
     Using radial grid of  729 points,  4 beta functions with:
                l(1) =   0
                l(2) =   0
                l(3) =   1
                l(4) =   1
     Q(r) pseudized with  8 coefficients,  rinner =    0.900   0.900   0.900

     PseudoPot. # 3 for H  read from file:
     /u/if/mamunm/psp/gbrv1.5pbe/H.UPF
     MD5 check sum: 761ae9a214b05c3daf00ab9f6b793d6f
     Pseudo is Ultrasoft, Zval =  1.0
     Generated by new atomic code, or converted to UPF format
     Using radial grid of  615 points,  2 beta functions with:
                l(1) =   0
                l(2) =   0
     Q(r) pseudized with  8 coefficients,  rinner =    0.700

     vdW kernel table read from file vdW_kernel_table
     MD5 check sum: 095c7af220d748ca6e76c0b4c6cfb241

     atomic species   valence    mass     pseudopotential
        Pd1           16.00   106.42000     Pd( 1.00)
        N1             5.00    14.00700     N ( 1.00)
        H1             1.00     1.00800     H ( 1.00)

     No symmetry found

   Cartesian axes

     site n.     atom                  positions (alat units)
         1           Pd1 tau(   1) = (   1.4094157   0.8137265  10.0000000  )
         2           Pd1 tau(   2) = (   4.2282471   0.8137265  10.0000000  )
         3           Pd1 tau(   3) = (   2.8188314   3.2549061  10.0000000  )
         4           Pd1 tau(   4) = (   5.6376627   3.2549061  10.0000000  )
         5           Pd1 tau(   5) = (   5.6376627   1.6274531  12.3015662  )
         6           Pd1 tau(   6) = (   2.8188314   1.6274531  12.3015662  )
         7           Pd1 tau(   7) = (   7.0470784   4.0686326  12.3015662  )
         8           Pd1 tau(   8) = (   4.2282471   4.0686326  12.3015662  )
         9           Pd1 tau(   9) = (   0.0000000   0.0000000  14.6031324  )
        10           Pd1 tau(  10) = (   2.8188314   0.0000000  14.6031324  )
        11           Pd1 tau(  11) = (   1.4094157   2.4411796  14.6031324  )
        12           Pd1 tau(  12) = (   4.2282471   2.4411796  14.6031324  )
        13           N1  tau(  13) = (   2.8188314   1.6274531  15.9681324  )
        14           H1  tau(  14) = (   2.8188314   1.6274531  17.0181324  )

     number of k points=    20  Fermi-Dirac smearing, width (Ry)=  0.0110
                       cart. coord. in units 2pi/alat
        k(    1) = (   0.0000000   0.0000000   0.0000000), wk =   0.0555556
        k(    2) = (   0.0000000   0.0341365   0.0000000), wk =   0.1111111
        k(    3) = (   0.0000000   0.0682730   0.0000000), wk =   0.1111111
        k(    4) = (   0.0000000  -0.1024095   0.0000000), wk =   0.0555556
        k(    5) = (   0.0295631  -0.0170683   0.0000000), wk =   0.1111111
        k(    6) = (   0.0295631   0.0170683   0.0000000), wk =   0.1111111
        k(    7) = (   0.0295631   0.0512048   0.0000000), wk =   0.1111111
        k(    8) = (   0.0295631  -0.1194778   0.0000000), wk =   0.1111111
        k(    9) = (   0.0295631  -0.0853413   0.0000000), wk =   0.1111111
        k(   10) = (   0.0295631  -0.0512048   0.0000000), wk =   0.1111111
        k(   11) = (   0.0591262  -0.0341365   0.0000000), wk =   0.1111111
        k(   12) = (   0.0591262  -0.0000000   0.0000000), wk =   0.1111111
        k(   13) = (   0.0591262   0.0341365   0.0000000), wk =   0.1111111
        k(   14) = (   0.0591262  -0.1365460   0.0000000), wk =   0.1111111
        k(   15) = (   0.0591262  -0.1024095   0.0000000), wk =   0.1111111
        k(   16) = (   0.0591262  -0.0682730   0.0000000), wk =   0.1111111
        k(   17) = (  -0.0886892   0.0512048   0.0000000), wk =   0.0555556
        k(   18) = (  -0.0886892   0.0853413   0.0000000), wk =   0.1111111
        k(   19) = (  -0.0886892   0.1194778   0.0000000), wk =   0.1111111
        k(   20) = (  -0.0886892  -0.0512048   0.0000000), wk =   0.0555556

     Largest allocated arrays     est. size (Mb)     dimensions
     Largest temporary arrays     est. size (Mb)     dimensions

     Initial potential from superposition of free atoms
     Check: negative starting charge=   -0.904067

     starting charge  191.99990, renormalised to  198.00000

     negative rho (up, down):  9.323E-01 0.000E+00

     *
     * You are using vdW-DF for exchange-correlation in this calculation.
     * Please cite the following three references that made this development
     * possible:
     *
     *   M. Dion, H. Rydberg, E. Schroder, D. C. Langreth, and
     *   B. I. Lundqvist, Phys. Rev. Lett. 92, 246401 (2004).
     *
     *   T. Thonhauser, V. R. Cooper, S. Li, A. Puzder, P. Hyldgaard, and
     *   D. C. Langreth, Phys. Rev. B 76, 125112 (2007).
     *
     *   G. Roman-Perez and J. M. Soler, Phys. Rev. Lett. 103, 096102 (2009).
     *
     *
     * If you are using vdW-DF2, please also cite:
     *
     *   K. Lee, E. D. Murray, L. Kong, B. I. Lundqvist, and
     *   D. C. Langreth, Phys. Rev. B 82, 081101(R) (2010).
     *
     *
     * If you are calculating the stress with vdW-DF, please also cite:
     *
     *   R. Sabatini, E. Kucukbenli, B. Kolb, T. Thonhauser, and
     *   S. de Gironcoli, J. Phys.: Condens. Matter 24, 424209 (2012).
     *

     Carrying out vdW-DF run using the following parameters:

     Nqs =      20    Nr_points =    1024   r_max =   100.000
     q_mesh =
               0.00001000     0.04494208     0.09755937     0.15916263
               0.23128650     0.31572767     0.41458969     0.53033537
               0.66584808     0.82450364     1.01025438     1.22772762
               1.48234092     1.78043706     2.12944203     2.53805004
               3.01644009     3.57652955     4.23227104     5.00000000

     Gradients computed in reciprocal space

     Adding external electric field

     Computed dipole along edir(3) :
        Dipole               -1.3610 Ry au,         -3.4594 Debye
        Dipole field         -0.0037 Ry au

        Potential amp.        0.3393 Ry
        Total length         45.3309 bohr

     Starting wfc are  149 randomized atomic wfcs

     Self-consistent Calculation

     iteration #  1     ecut=    36.75 Ry     beta=0.30
     Davidson diagonalization with overlap
     ethr =  1.00E-02,  avg # of iterations =  4.8

[...]

     total energy              =   -2371.25313101 Ry
     Harris-Foulkes estimate   =   -2421.76803389 Ry
     estimated scf accuracy    <     106.72093643 Ry

[...]

     End of self-consistent calculation

          k = 0.0000 0.0000 0.0000 ( 17231 PWs)   bands (ev):

   -49.0652 -48.9470 -48.9460 -48.7375 -48.7367 -48.6455 -48.6401 -48.5987
   -48.5816 -48.5813 -48.5133 -48.5126 -48.4842 -48.4699 -48.4697 -48.4030
   -48.4029 -48.4017 -48.3969 -48.3377 -48.3376 -48.3259 -48.3257 -48.3001
   -48.1613 -48.1612 -48.1331 -48.1134 -48.1133 -48.0896 -48.0895 -48.0652
   -47.9797 -47.9668 -47.9644 -47.9637 -13.9778  -5.9904  -4.3332  -3.4048
    -3.4046  -3.2677  -3.1208  -3.1208  -3.1118  -3.0104  -2.8683  -2.8589
    -2.8588  -2.7562  -2.6030  -2.6029  -2.3341  -2.3068  -2.3066  -1.5612
    -1.5612  -1.4459  -1.3439  -1.3439  -1.2782  -1.0735  -1.0735  -1.0333
    -1.0332  -1.0122  -0.9231  -0.8079  -0.8079  -0.7096  -0.7096  -0.5448
    -0.2074  -0.2072  -0.1706   0.0190   0.1983   0.1985   0.3481   0.3482
     0.4665   0.4665   0.6870   0.6871   0.7187   0.9654   0.9695   0.9696
     1.0541   1.0699   1.0730   1.0730   1.2123   1.2125   1.3175   1.3581
     1.3581   1.5322   1.5325   1.5487   1.7245   1.7247   1.8701   3.0711
     3.6254   3.6254   4.0608   4.8052   4.9123

[...]

          k =-0.0887 0.0512 0.0000 ( 17240 PWs)   bands (ev):

[...]

     the Fermi energy is     1.3110 ev

!    total energy              =   -2418.88751915 Ry
     Harris-Foulkes estimate   =   -2418.88752649 Ry
     estimated scf accuracy    <       0.00000251 Ry

     The total energy is the sum of the following terms:

     one-electron contribution =  -20708.45207237 Ry
     hartree contribution      =   10407.39066758 Ry
     xc contribution           =    -396.31507920 Ry
     ewald contribution        =    8278.60140709 Ry
     electric field correction =       0.00013377 Ry
     smearing contrib. (-TS)   =      -0.11257602 Ry

     convergence has been achieved in  20 iterations

 BEEF-vdW xc energy contributions
           1 :   -344.921279479423
           2 :    315.037090446684
           3 :   -264.098272544285
           4 :    205.828200655641
           5 :   -153.470793460695
           6 :    115.449900362700
           7 :   -93.5647526040534
           8 :    84.0103439698074
           9 :   -80.3557037269509
          10 :    76.8823135670020
          11 :   -70.7750161886695
          12 :    62.4185946453123
          13 :   -54.0939751610717
          14 :    48.0763969855480
          15 :   -45.2357026502535
          16 :    44.7542403309945
          17 :   -44.8702319358297
          18 :    44.0157355967906
          19 :   -41.6364802927972
          20 :    38.2878430834966
          21 :   -35.0831228250596
          22 :    32.9208805356781
          23 :   -31.9765886225133
          24 :    31.7089403923366
          25 :   -31.2966403785599
          26 :    30.1790846327222
          27 :   -28.3612523757977
          28 :    26.3276370036670
          29 :   -24.6693481816804
          30 :    23.6898909190103
          31 :   -33.7281077058492
          32 :   -24.8922449635531

     Forces acting on atoms (Ry/au):

     negative rho (up, down):  9.424E-01 0.000E+00
     atom    1 type  1   force =     0.00023658    0.00013411   -0.00231646
     atom    2 type  1   force =    -0.00024432    0.00013906   -0.00237639
     atom    3 type  1   force =     0.00000402   -0.00027544   -0.00236787
     atom    4 type  1   force =    -0.00001400   -0.00000444    0.00239840
     atom    5 type  1   force =    -0.00008299    0.00242577    0.00423014
     atom    6 type  1   force =     0.00007827    0.00003321   -0.01699563
     atom    7 type  1   force =    -0.00206403   -0.00119000    0.00413644
     atom    8 type  1   force =     0.00205733   -0.00127433    0.00418766
     atom    9 type  1   force =     0.00000312   -0.00000039   -0.00538992
     atom   10 type  1   force =    -0.00001514    0.00958797    0.02927580
     atom   11 type  1   force =     0.00830050   -0.00480344    0.02927486
     atom   12 type  1   force =    -0.00830272   -0.00479072    0.02932597
     atom   13 type  2   force =     0.00004300    0.00002096   -0.03555410
     atom   14 type  3   force =     0.00000039   -0.00000233   -0.03782890

     Total force =     0.074660     Total SCF correction =     0.009149
     SCF correction compared to forces is large: reduce conv_thr to get better values

     entering subroutine stress ...

     negative rho (up, down):  9.424E-01 0.000E+00
          total   stress  (Ry/bohr**3)                   (kbar)     P=  -11.89
  -0.00008886   0.00000002  -0.00000006        -13.07      0.00     -0.01
   0.00000002  -0.00008887  -0.00000002          0.00    -13.07     -0.00
  -0.00000006  -0.00000002  -0.00006481         -0.01     -0.00     -9.53

     BFGS Geometry Optimization

     number of scf cycles    =   1
     number of bfgs steps    =   0

     energy   new            =   -2418.8875191513 Ry

     new trust radius        =       0.0378288994 bohr
     new conv_thr            =       0.0000099958 Ry

ATOMIC_POSITIONS (crystal)
Pd1      0.166666667   0.166666667   0.406452311    0   0   0
Pd1      0.666666667   0.166666667   0.406452311    0   0   0
Pd1      0.166666667   0.666666667   0.406452311    0   0   0
Pd1      0.666666667   0.666666667   0.406452311    0   0   0
Pd1      0.833333333   0.333333333   0.500000000    0   0   0
Pd1      0.333333333   0.333333333   0.500000000    0   0   0
Pd1      0.833333333   0.833333333   0.500000000    0   0   0
Pd1      0.333333333   0.833333333   0.500000000    0   0   0
Pd1      0.000000314  -0.000000042   0.593431760
Pd1      0.499478980   0.001039197   0.594177369
Pd1      0.001039435   0.499479376   0.594177348
Pd1      0.499480291   0.499480755   0.594178448
N1       0.333336233   0.333335605   0.648263713
H1       0.333333496   0.333333081   0.690892278

     Writing output data file calc.save
     Check: negative starting charge=   -0.904067
     NEW-OLD atomic charge density approx. for the potential
     Check: negative starting charge=   -0.903655

[...]

     Total force =     0.060929     Total SCF correction =     0.005795

[...]

     energy   old            =   -2418.8875191513 Ry
     energy   new            =   -2418.8925655108 Ry

     CASE: energy  _new < energy  _old

     WARNING: bfgs curvature condition failed, Theta= 0.996
     new trust radius        =       0.0416117893 bohr
     new conv_thr            =       0.0000001000 Ry

[...]

     Total force =     0.003740     Total SCF correction =     0.000286

[...]

     number of scf cycles    =  13
     number of bfgs steps    =  12

     energy   old            =   -2418.9054717653 Ry
     energy   new            =   -2418.9055544897 Ry

     CASE: energy  _new < energy  _old

     new trust radius        =       0.0082967665 bohr
     new conv_thr            =       0.0000001000 Ry

ATOMIC_POSITIONS (crystal)
Pd1      0.166666667   0.166666667   0.406452311    0   0   0
Pd1      0.666666667   0.166666667   0.406452311    0   0   0
Pd1      0.166666667   0.666666667   0.406452311    0   0   0
Pd1      0.666666667   0.666666667   0.406452311    0   0   0
Pd1      0.833333333   0.333333333   0.500000000    0   0   0
Pd1      0.333333333   0.333333333   0.500000000    0   0   0
Pd1      0.833333333   0.833333333   0.500000000    0   0   0
Pd1      0.333333333   0.833333333   0.500000000    0   0   0
Pd1     -0.000004692   0.000000937   0.591571249
Pd1      0.503370507  -0.006731326   0.596030861
Pd1     -0.006730824   0.503367430   0.596031070
Pd1      0.503370159   0.503365502   0.596030028
N1       0.333331944   0.333331794   0.642120846
H1       0.333334553   0.333332389   0.683785929

     Writing output data file calc.save
     Check: negative starting charge=   -0.906685
     NEW-OLD atomic charge density approx. for the potential
     Check: negative starting charge=   -0.906517

[...]

     Self-consistent Calculation

[...]

     total energy              =   -2418.90556748 Ry
     Harris-Foulkes estimate   =   -2418.90556775 Ry
     estimated scf accuracy    <       0.00000120 Ry

     iteration #  8     ecut=    36.75 Ry     beta=0.30
     Davidson diagonalization with overlap
     ethr =  6.08E-10,  avg # of iterations =  1.1

[...]

     negative rho (up, down):  9.460E-01 0.000E+00

     Adding external electric field

     Computed dipole along edir(3) :
        Dipole                0.2831 Ry au,          0.7195 Debye
        Dipole field          0.0008 Ry au

        Potential amp.       -0.0706 Ry
        Total length         45.3309 bohr

     End of self-consistent calculation

[...]

          k = 0.0591-0.0683 0.0000 ( 17183 PWs)   bands (ev):

[...]

          k =-0.0887-0.0512 0.0000 ( 17240 PWs)   bands (ev):

   -49.1645 -49.1110 -49.0669 -48.7428 -48.7277 -48.6875 -48.5823 -48.5539
   -48.5233 -48.4475 -48.3885 -48.3764 -48.3630 -48.3541 -48.3474 -48.3392
   -48.3364 -48.2938 -48.2711 -48.2516 -48.2266 -48.2015 -48.1656 -48.1541
   -48.0988 -48.0943 -48.0873 -48.0850 -48.0770 -48.0364 -48.0158 -47.9693
   -47.9548 -47.8757 -47.8703 -47.8656 -14.7086  -6.3634  -4.0892  -3.6242
    -2.9922  -2.8457  -2.5104  -2.4967  -2.3192  -2.3001  -2.2790  -2.1817
    -2.1266  -2.0626  -2.0034  -1.9694  -1.9429  -1.8247  -1.7806  -1.6797
    -1.4563  -1.4479  -1.4011  -1.3431  -1.3023  -1.2808  -1.1796  -1.1638
    -1.0591  -0.9888  -0.8312  -0.8039  -0.7039  -0.6861  -0.6330  -0.5428
    -0.5410  -0.5003  -0.4253  -0.4011  -0.3345  -0.3269  -0.1573  -0.1455
    -0.0433  -0.0083  -0.0039   0.0432   0.0827   0.1780   0.1885   0.2538
     0.3750   0.4640   0.5364   0.5860   0.6948   0.6985   0.9672   0.9743
     1.1398   1.1466   1.2012   1.3592   1.4270   1.8218   1.8428   2.5265
     3.7485   3.9804   4.1350   4.3060   5.2181

     the Fermi energy is     1.4035 ev

!    total energy              =   -2418.90556756 Ry
     Harris-Foulkes estimate   =   -2418.90556904 Ry
     estimated scf accuracy    <       0.00000008 Ry

     The total energy is the sum of the following terms:

     one-electron contribution =  -20681.50910783 Ry
     hartree contribution      =   10394.20668239 Ry
     xc contribution           =    -396.42031365 Ry
     ewald contribution        =    8264.92653280 Ry
     electric field correction =       0.00022035 Ry
     smearing contrib. (-TS)   =      -0.10958161 Ry

     convergence has been achieved in   8 iterations

 BEEF-vdW xc energy contributions
           1 :   -345.031395421445
           2 :    315.180159823023
           3 :   -264.272916721170
           4 :    205.999330209511
           5 :   -153.593784138392
           6 :    115.494717747637
           7 :   -93.5276744658830
           8 :    83.9119505636075
           9 :   -80.2305285607574
          10 :    76.7664139290097
          11 :   -70.6947520033382
          12 :    62.3840074764507
          13 :   -54.0983189072921
          14 :    48.1010063625038
          15 :   -45.2588203294687
          16 :    44.7610597436106
          17 :   -44.8591903271349
          18 :    43.9979558278213
          19 :   -41.6287831279962
          20 :    38.3020390464615
          21 :   -35.1160956541864
          22 :    32.9516476962784
          23 :   -31.9745223876500
          24 :    31.6512597332816
          25 :   -31.1849240800375
          26 :    30.0433840687197
          27 :   -28.2478891766893
          28 :    26.2758597381189
          29 :   -24.6896561515040
          30 :    23.7572383892134
          31 :   -33.7346010944422
          32 :   -24.9048159365207

     Forces acting on atoms (Ry/au):

     negative rho (up, down):  9.460E-01 0.000E+00
     atom    1 type  1   force =     0.00045213    0.00025985   -0.00304004
     atom    2 type  1   force =    -0.00045190    0.00026157   -0.00304127
     atom    3 type  1   force =     0.00000164   -0.00052159   -0.00304049
     atom    4 type  1   force =    -0.00000117    0.00000025    0.00185485
     atom    5 type  1   force =     0.00000120    0.00467508    0.00409095
     atom    6 type  1   force =    -0.00000018    0.00000030   -0.00643887
     atom    7 type  1   force =    -0.00404986   -0.00233891    0.00409175
     atom    8 type  1   force =     0.00404746   -0.00233600    0.00409217
     atom    9 type  1   force =     0.00001338   -0.00000190    0.00149163
     atom   10 type  1   force =    -0.00001127    0.00027652    0.00037167
     atom   11 type  1   force =     0.00023947   -0.00014260    0.00037202
     atom   12 type  1   force =    -0.00025350   -0.00013813    0.00038112
     atom   13 type  2   force =     0.00001316    0.00000583   -0.00117730
     atom   14 type  3   force =    -0.00000053   -0.00000026   -0.00000819

     Total force =     0.002067     Total SCF correction =     0.000761
     SCF correction compared to forces is large: reduce conv_thr to get better values

     entering subroutine stress ...

     negative rho (up, down):  9.460E-01 0.000E+00
          total   stress  (Ry/bohr**3)                   (kbar)     P=   -6.29
  -0.00005924  -0.00000001   0.00000000         -8.71     -0.00      0.00
  -0.00000001  -0.00005924   0.00000000         -0.00     -8.71      0.00
   0.00000000   0.00000000  -0.00000985          0.00      0.00     -1.45

     bfgs converged in  14 scf cycles and  13 bfgs steps
     (criteria: energy <  1.0E+00, force <  1.9E-03)

     End of BFGS Geometry Optimization

     Final energy   =   -2418.9055675576 Ry
Begin final coordinates

ATOMIC_POSITIONS (crystal)
Pd1      0.166666667   0.166666667   0.406452311    0   0   0
Pd1      0.666666667   0.166666667   0.406452311    0   0   0
Pd1      0.166666667   0.666666667   0.406452311    0   0   0
Pd1      0.666666667   0.666666667   0.406452311    0   0   0
Pd1      0.833333333   0.333333333   0.500000000    0   0   0
Pd1      0.333333333   0.333333333   0.500000000    0   0   0
Pd1      0.833333333   0.833333333   0.500000000    0   0   0
Pd1      0.333333333   0.833333333   0.500000000    0   0   0
Pd1     -0.000004692   0.000000937   0.591571249
Pd1      0.503370507  -0.006731326   0.596030861
Pd1     -0.006730824   0.503367430   0.596031070
Pd1      0.503370159   0.503365502   0.596030028
N1       0.333331944   0.333331794   0.642120846
H1       0.333334553   0.333332389   0.683785929
End final coordinates

     Writing output data file calc.save

     General routines

     Parallel routines

   This run was terminated on:  23:40:52  21Apr2018

   JOB DONE.
Job  /afs/slac/g/suncat/bin/suncat-tsmpirun -x LD_LIBRARY_PATH -wdir /scratch/qe465575_K97p7 pw.x -npool 4 -in pw.inp

TID   HOST_NAME   COMMAND_LINE            STATUS            TERMINATION_TIME
00000 suncat0176 pw.x -npool 4 -i  Done                     04/21/2018 23:40:52
00001 suncat0176 pw.x -npool 4 -i  Done                     04/21/2018 23:40:52
00002 suncat0176 pw.x -npool 4 -i  Done                     04/21/2018 23:40:52
00003 suncat0176 pw.x -npool 4 -i  Done                     04/21/2018 23:40:52
00004 suncat0176 pw.x -npool 4 -i  Done                     04/21/2018 23:40:52
00005 suncat0176 pw.x -npool 4 -i  Done                     04/21/2018 23:40:52
00006 suncat0176 pw.x -npool 4 -i  Done                     04/21/2018 23:40:52
00007 suncat0176 pw.x -npool 4 -i  Done                     04/21/2018 23:40:52
00008 suncat0163 pw.x -npool 4 -i  Done                     04/21/2018 23:40:52
00009 suncat0163 pw.x -npool 4 -i  Done                     04/21/2018 23:40:52
00010 suncat0163 pw.x -npool 4 -i  Done                     04/21/2018 23:40:52
00011 suncat0163 pw.x -npool 4 -i  Done                     04/21/2018 23:40:52
00012 suncat0163 pw.x -npool 4 -i  Done                     04/21/2018 23:40:52
00013 suncat0163 pw.x -npool 4 -i  Done                     04/21/2018 23:40:52
00014 suncat0163 pw.x -npool 4 -i  Done                     04/21/2018 23:40:52
00015 suncat0163 pw.x -npool 4 -i  Done                     04/21/2018 23:40:52
00016 suncat0145 pw.x -npool 4 -i  Done                     04/21/2018 23:40:52
00017 suncat0145 pw.x -npool 4 -i  Done                     04/21/2018 23:40:52
00018 suncat0145 pw.x -npool 4 -i  Done                     04/21/2018 23:40:52
00019 suncat0145 pw.x -npool 4 -i  Done                     04/21/2018 23:40:52
00020 suncat0145 pw.x -npool 4 -i  Done                     04/21/2018 23:40:52
00021 suncat0145 pw.x -npool 4 -i  Done                     04/21/2018 23:40:52
00022 suncat0145 pw.x -npool 4 -i  Done                     04/21/2018 23:40:52
00023 suncat0145 pw.x -npool 4 -i  Done                     04/21/2018 23:40:52
00024 suncat0138 pw.x -npool 4 -i  Done                     04/21/2018 23:40:52
00025 suncat0138 pw.x -npool 4 -i  Done                     04/21/2018 23:40:52
00026 suncat0138 pw.x -npool 4 -i  Done                     04/21/2018 23:40:52
00027 suncat0138 pw.x -npool 4 -i  Done                     04/21/2018 23:40:52
00028 suncat0138 pw.x -npool 4 -i  Done                     04/21/2018 23:40:52
00029 suncat0138 pw.x -npool 4 -i  Done                     04/21/2018 23:40:52
00030 suncat0138 pw.x -npool 4 -i  Done                     04/21/2018 23:40:52
00031 suncat0138 pw.x -npool 4 -i  Done                     04/21/2018 23:40:52