     Program PWSCF v.5.1rc2 (svn rev. 11289) starts on 16Jan2018 at 14:23:48

     Current dimensions of program PWSCF are:
     Max number of different atomic species (ntypx) = 10
     Max number of k-points (npk) =  40000
     Max angular momentum in pseudopotentials (lmaxx) =  3
     Presently stress not available with electric field

     IMPORTANT: XC functional enforced from input :
     Exchange-correlation      = BEEF-VDW ( 1  4 27 13 2)
     Any further DFT definition will be discarded
     Please, verify this is what you really want

     Subspace diagonalization in iterative solution of the eigenvalue problem:
     a serial algorithm will be used

     bravais-lattice index     =            0
     lattice parameter (alat)  =       1.8897  a.u.
     unit-cell volume          =    7171.5276 (a.u.)^3
     number of atoms/cell      =           13
     number of atomic types    =            2
     number of electrons       =       169.00
     number of Kohn-Sham states=           94
     kinetic-energy cutoff     =      36.7493  Ry
     charge density cutoff     =     367.4932  Ry
     convergence threshold     =      1.0E-05
     mixing beta               =       0.3000
     number of iterations used =           10  plain     mixing
     Exchange-correlation      = BEEF-VDW ( 1  4 27 13 2)
     nstep                     =           50

     celldm(1)=   1.889726  celldm(2)=   0.000000  celldm(3)=   0.000000
     celldm(4)=   0.000000  celldm(5)=   0.000000  celldm(6)=   0.000000

     crystal axes: (cart. coord. in units of alat)
               a(1) = (   6.917003   0.000000   0.000000 )
               a(2) = (   3.458501   5.990300   0.000000 )
               a(3) = (   0.000000   0.000000  25.647709 )

     reciprocal axes: (cart. coord. in units 2 pi/alat)
               b(1) = (  0.144571 -0.083468  0.000000 )
               b(2) = (  0.000000  0.166937  0.000000 )
               b(3) = (  0.000000  0.000000  0.038990 )

     PseudoPot. # 1 for Pb read from file:
     /afs/slac.stanford.edu/u/if/mamunm/psp/gbrv1.5pbe/Pb.UPF
     MD5 check sum: 3d1c1779aa92214d1e8f3a7db79003e2
     Pseudo is Ultrasoft + core correction, Zval = 14.0
     Generated by new atomic code, or converted to UPF format
     Using radial grid of  899 points,  6 beta functions with:
                l(1) =   0
                l(2) =   0
                l(3) =   1
                l(4) =   1
                l(5) =   2
                l(6) =   2
     Q(r) pseudized with  6 coefficients,  rinner =    1.000   1.000   1.000
                                                       1.000   1.000

     PseudoPot. # 2 for H  read from file:
     /afs/slac.stanford.edu/u/if/mamunm/psp/gbrv1.5pbe/H.UPF
     MD5 check sum: 761ae9a214b05c3daf00ab9f6b793d6f
     Pseudo is Ultrasoft, Zval =  1.0
     Generated by new atomic code, or converted to UPF format
     Using radial grid of  615 points,  2 beta functions with:
                l(1) =   0
                l(2) =   0
     Q(r) pseudized with  8 coefficients,  rinner =    0.700

     vdW kernel table read from file vdW_kernel_table
     MD5 check sum: 095c7af220d748ca6e76c0b4c6cfb241

     atomic species   valence    mass     pseudopotential
        Pb1           14.00   207.20000     Pb( 1.00)
        H1             1.00     1.00800     H ( 1.00)

     No symmetry found

   Cartesian axes

     site n.     atom                  positions (alat units)
         1           Pb1 tau(   1) = (   1.7292506   0.9983833  10.0000000  )
         2           Pb1 tau(   2) = (   5.1877519   0.9983833  10.0000000  )
         3           Pb1 tau(   3) = (   3.4585013   3.9935333  10.0000000  )
         4           Pb1 tau(   4) = (   6.9170025   3.9935333  10.0000000  )
         5           Pb1 tau(   5) = (   6.9170025   1.9967666  12.8238544  )
         6           Pb1 tau(   6) = (   3.4585013   1.9967666  12.8238544  )
         7           Pb1 tau(   7) = (   8.6462531   4.9919166  12.8238544  )
         8           Pb1 tau(   8) = (   5.1877519   4.9919166  12.8238544  )
         9           Pb1 tau(   9) = (   0.0000000   0.0000000  15.6477089  )
        10           Pb1 tau(  10) = (   3.4585013   0.0000000  15.6477089  )
        11           Pb1 tau(  11) = (   1.7292506   2.9951499  15.6477089  )
        12           Pb1 tau(  12) = (   5.1877519   2.9951499  15.6477089  )
        13           H1  tau(  13) = (   1.7292506   0.0000000  17.4177089  )

     number of k points=    20  Fermi-Dirac smearing, width (Ry)=  0.0110
                       cart. coord. in units 2pi/alat
        k(    1) = (   0.0000000   0.0000000   0.0000000), wk =   0.0555556
        k(    2) = (   0.0000000   0.0278228   0.0000000), wk =   0.1111111
        k(    3) = (   0.0000000   0.0556455   0.0000000), wk =   0.1111111
        k(    4) = (   0.0000000  -0.0834683   0.0000000), wk =   0.0555556
        k(    5) = (   0.0240952  -0.0139114   0.0000000), wk =   0.1111111
        k(    6) = (   0.0240952   0.0139114   0.0000000), wk =   0.1111111
        k(    7) = (   0.0240952   0.0417341   0.0000000), wk =   0.1111111
        k(    8) = (   0.0240952  -0.0973797   0.0000000), wk =   0.1111111
        k(    9) = (   0.0240952  -0.0695569   0.0000000), wk =   0.1111111
        k(   10) = (   0.0240952  -0.0417341   0.0000000), wk =   0.1111111
        k(   11) = (   0.0481904  -0.0278228   0.0000000), wk =   0.1111111
        k(   12) = (   0.0481904   0.0000000   0.0000000), wk =   0.1111111
        k(   13) = (   0.0481904   0.0278228   0.0000000), wk =   0.1111111
        k(   14) = (   0.0481904  -0.1112910   0.0000000), wk =   0.1111111
        k(   15) = (   0.0481904  -0.0834683   0.0000000), wk =   0.1111111
        k(   16) = (   0.0481904  -0.0556455   0.0000000), wk =   0.1111111
        k(   17) = (  -0.0722856   0.0417341   0.0000000), wk =   0.0555556
        k(   18) = (  -0.0722856   0.0695569   0.0000000), wk =   0.1111111
        k(   19) = (  -0.0722856   0.0973797   0.0000000), wk =   0.1111111
        k(   20) = (  -0.0722856  -0.0417341   0.0000000), wk =   0.0555556

     Largest allocated arrays     est. size (Mb)     dimensions
     Largest temporary arrays     est. size (Mb)     dimensions

     Check: negative/imaginary core charge=   -0.000001    0.000000

     Initial potential from superposition of free atoms
     Check: negative starting charge=   -0.198283

     starting charge  168.97177, renormalised to  169.00000

     negative rho (up, down):  1.983E-01 0.000E+00

     *
     * You are using vdW-DF for exchange-correlation in this calculation.
     * Please cite the following three references that made this development
     * possible:
     *
     *   M. Dion, H. Rydberg, E. Schroder, D. C. Langreth, and
     *   B. I. Lundqvist, Phys. Rev. Lett. 92, 246401 (2004).
     *
     *   T. Thonhauser, V. R. Cooper, S. Li, A. Puzder, P. Hyldgaard, and
     *   D. C. Langreth, Phys. Rev. B 76, 125112 (2007).
     *
     *   G. Roman-Perez and J. M. Soler, Phys. Rev. Lett. 103, 096102 (2009).
     *
     *
     * If you are using vdW-DF2, please also cite:
     *
     *   K. Lee, E. D. Murray, L. Kong, B. I. Lundqvist, and
     *   D. C. Langreth, Phys. Rev. B 82, 081101(R) (2010).
     *
     *
     * If you are calculating the stress with vdW-DF, please also cite:
     *
     *   R. Sabatini, E. Kucukbenli, B. Kolb, T. Thonhauser, and
     *   S. de Gironcoli, J. Phys.: Condens. Matter 24, 424209 (2012).
     *

     Carrying out vdW-DF run using the following parameters:

     Nqs =      20    Nr_points =    1024   r_max =   100.000
     q_mesh =
               0.00001000     0.04494208     0.09755937     0.15916263
               0.23128650     0.31572767     0.41458969     0.53033537
               0.66584808     0.82450364     1.01025438     1.22772762
               1.48234092     1.78043706     2.12944203     2.53805004
               3.01644009     3.57652955     4.23227104     5.00000000

     Gradients computed in reciprocal space

     Adding external electric field

     Computed dipole along edir(3) :
        Dipole               -0.0014 Ry au,         -0.0035 Debye
        Dipole field         -0.0000 Ry au

        Potential amp.        0.0002 Ry
        Total length         47.2555 bohr

     Starting wfc are  109 randomized atomic wfcs

     Self-consistent Calculation

     iteration #  1     ecut=    36.75 Ry     beta=0.30
     Davidson diagonalization with overlap
     ethr =  1.00E-02,  avg # of iterations =  2.0

     Threshold (ethr) on eigenvalues was too large:
     Diagonalizing with lowered threshold

     Davidson diagonalization with overlap
     ethr =  1.58E-04,  avg # of iterations =  2.5

[...]

     total energy              =   -1993.26668426 Ry
     Harris-Foulkes estimate   =   -1993.37530350 Ry
     estimated scf accuracy    <       0.28512706 Ry

[...]

     End of self-consistent calculation

          k = 0.0000 0.0000 0.0000 ( 27033 PWs)   bands (ev):

   -16.6211 -16.6198 -16.6181 -16.5787 -16.5773 -16.5755 -16.5314 -16.5310
   -16.5290 -16.5281 -16.5155 -16.4954 -16.4954 -16.4902 -16.4865 -16.4833
   -16.4695 -16.4665 -16.4637 -16.4630 -16.4626 -16.4527 -16.4466 -16.4466
   -16.4410 -16.4350 -16.4346 -16.4274 -16.4236 -16.4227 -16.3604 -16.3569
   -16.3531 -16.3323 -16.3266 -16.3190 -16.3188 -16.3116 -16.3054 -16.3005
   -16.2411 -16.2390 -16.2322 -16.2291 -16.2273 -16.2241 -16.2177 -16.2135
   -16.2092 -16.2060 -16.2034 -16.1974 -16.1948 -16.1918 -16.1821 -16.1752
   -16.1715 -16.1488 -16.1442 -16.1367 -10.5741  -9.4764  -7.9661  -7.0366
    -7.0276  -7.0256  -6.6173  -6.5931  -6.5904  -5.9799  -5.9596  -5.9553
    -2.9342  -2.7397  -2.7371  -2.4314  -1.8896  -1.6874  -1.6856  -1.6390
    -1.5640  -1.5619  -0.2394   1.1634   2.1549   2.1552   2.1731   2.1979
     2.2017   2.6871   3.4913   3.5713   3.5753   3.6624

[...]

          k =-0.0723 0.0417 0.0000 ( 26962 PWs)   bands (ev):

[...]

     the Fermi energy is     1.0147 ev

!    total energy              =   -1993.33562614 Ry
     Harris-Foulkes estimate   =   -1993.33564856 Ry
     estimated scf accuracy    <       0.00000367 Ry

     The total energy is the sum of the following terms:

     one-electron contribution =   -9423.59230287 Ry
     hartree contribution      =    4780.76172371 Ry
     xc contribution           =    -784.53898595 Ry
     ewald contribution        =    3434.07485490 Ry
     electric field correction =       0.00014402 Ry
     smearing contrib. (-TS)   =      -0.04105996 Ry

     convergence has been achieved in   9 iterations

 BEEF-vdW xc energy contributions
           1 :   -699.420581803594
           2 :    649.762569566385
           3 :   -562.286328770086
           4 :    456.117893906869
           5 :   -351.021833908835
           6 :    261.477887960596
           7 :   -193.533630268878
           8 :    145.197397741976
           9 :   -109.691730039052
          10 :    79.7898630881493
          11 :   -51.2218970548969
          12 :    23.8257765393174
          13 :  -0.365695192848420
          14 :   -15.9433673415409
          15 :    23.7060023821837
          16 :   -24.2691245429982
[...]

[...]

   This run was terminated on:  15:19: 1  16Jan2018

[...]

     Program PWSCF v.5.1rc2 (svn rev. 11289) starts on 16Jan2018 at 15:19: 7

[...]

   This run was terminated on:  15:30: 6  16Jan2018

[...]

     Program PWSCF v.5.1rc2 (svn rev. 11289) starts on 16Jan2018 at 16: 3:26

[...]

   This run was terminated on:  17: 9:31  16Jan2018

[...]

     Program PWSCF v.5.1rc2 (svn rev. 11289) starts on 16Jan2018 at 17: 9:37

[...]

     Program PWSCF v.5.1rc2 (svn rev. 11289) starts on 16Jan2018 at 17:20:37

     Current dimensions of program PWSCF are:
     Max number of different atomic species (ntypx) = 10
     Max number of k-points (npk) =  40000
     Max angular momentum in pseudopotentials (lmaxx) =  3
     Presently stress not available with electric field

     IMPORTANT: XC functional enforced from input :
     Exchange-correlation      = BEEF-VDW ( 1  4 27 13 2)
     Any further DFT definition will be discarded
     Please, verify this is what you really want

     Subspace diagonalization in iterative solution of the eigenvalue problem:
     a serial algorithm will be used

     bravais-lattice index     =            0
     lattice parameter (alat)  =       1.8897  a.u.
     unit-cell volume          =    7171.5276 (a.u.)^3
     number of atoms/cell      =           13
     number of atomic types    =            2
     number of electrons       =       169.00
     number of Kohn-Sham states=           94
     kinetic-energy cutoff     =      36.7493  Ry
     charge density cutoff     =     367.4932  Ry
     convergence threshold     =      1.0E-05
     mixing beta               =       0.3000
     number of iterations used =           10  plain     mixing
     Exchange-correlation      = BEEF-VDW ( 1  4 27 13 2)
     nstep                     =           50

     celldm(1)=   1.889726  celldm(2)=   0.000000  celldm(3)=   0.000000
     celldm(4)=   0.000000  celldm(5)=   0.000000  celldm(6)=   0.000000

     crystal axes: (cart. coord. in units of alat)
               a(1) = (   6.917003   0.000000   0.000000 )
               a(2) = (   3.458501   5.990300   0.000000 )
               a(3) = (   0.000000   0.000000  25.647709 )

     reciprocal axes: (cart. coord. in units 2 pi/alat)
               b(1) = (  0.144571 -0.083468  0.000000 )
               b(2) = (  0.000000  0.166937  0.000000 )
               b(3) = (  0.000000  0.000000  0.038990 )

     PseudoPot. # 1 for Pb read from file:
     /afs/slac.stanford.edu/u/if/mamunm/psp/gbrv1.5pbe/Pb.UPF
     MD5 check sum: 3d1c1779aa92214d1e8f3a7db79003e2
     Pseudo is Ultrasoft + core correction, Zval = 14.0
     Generated by new atomic code, or converted to UPF format
     Using radial grid of  899 points,  6 beta functions with:
                l(1) =   0
                l(2) =   0
                l(3) =   1
                l(4) =   1
                l(5) =   2
                l(6) =   2
     Q(r) pseudized with  6 coefficients,  rinner =    1.000   1.000   1.000
                                                       1.000   1.000

     PseudoPot. # 2 for H  read from file:
     /afs/slac.stanford.edu/u/if/mamunm/psp/gbrv1.5pbe/H.UPF
     MD5 check sum: 761ae9a214b05c3daf00ab9f6b793d6f
     Pseudo is Ultrasoft, Zval =  1.0
     Generated by new atomic code, or converted to UPF format
     Using radial grid of  615 points,  2 beta functions with:
                l(1) =   0
                l(2) =   0
     Q(r) pseudized with  8 coefficients,  rinner =    0.700

     vdW kernel table read from file vdW_kernel_table
     MD5 check sum: 095c7af220d748ca6e76c0b4c6cfb241

     atomic species   valence    mass     pseudopotential
        Pb1           14.00   207.20000     Pb( 1.00)
        H1             1.00     1.00800     H ( 1.00)

     No symmetry found

   Cartesian axes

     site n.     atom                  positions (alat units)
         1           Pb1 tau(   1) = (   1.7292506   0.9983833  10.0000000  )
         2           Pb1 tau(   2) = (   5.1877519   0.9983833  10.0000000  )
         3           Pb1 tau(   3) = (   3.4585013   3.9935333  10.0000000  )
         4           Pb1 tau(   4) = (   6.9170025   3.9935333  10.0000000  )
         5           Pb1 tau(   5) = (   6.9170025   1.9967666  12.8238544  )
         6           Pb1 tau(   6) = (   3.4585013   1.9967666  12.8238544  )
         7           Pb1 tau(   7) = (   8.6462531   4.9919166  12.8238544  )
         8           Pb1 tau(   8) = (   5.1877519   4.9919166  12.8238544  )
         9           Pb1 tau(   9) = (   0.0729932   0.0036110  16.1317077  )
        10           Pb1 tau(  10) = (   3.3860623   0.0032375  16.1316545  )
        11           Pb1 tau(  11) = (   8.6460657   3.0611961  15.7440941  )
        12           Pb1 tau(  12) = (   5.1879926   2.9452859  15.7307289  )
        13           H1  tau(  13) = (   1.7292614   0.0429372  17.4938989  )

     number of k points=    20  Fermi-Dirac smearing, width (Ry)=  0.0110
                       cart. coord. in units 2pi/alat
        k(    1) = (   0.0000000   0.0000000   0.0000000), wk =   0.0555556
        k(    2) = (   0.0000000   0.0278228   0.0000000), wk =   0.1111111
        k(    3) = (   0.0000000   0.0556455   0.0000000), wk =   0.1111111
        k(    4) = (   0.0000000  -0.0834683   0.0000000), wk =   0.0555556
        k(    5) = (   0.0240952  -0.0139114   0.0000000), wk =   0.1111111
        k(    6) = (   0.0240952   0.0139114   0.0000000), wk =   0.1111111
        k(    7) = (   0.0240952   0.0417341   0.0000000), wk =   0.1111111
        k(    8) = (   0.0240952  -0.0973797   0.0000000), wk =   0.1111111
        k(    9) = (   0.0240952  -0.0695569   0.0000000), wk =   0.1111111
        k(   10) = (   0.0240952  -0.0417341   0.0000000), wk =   0.1111111
        k(   11) = (   0.0481904  -0.0278228   0.0000000), wk =   0.1111111
        k(   12) = (   0.0481904   0.0000000   0.0000000), wk =   0.1111111
        k(   13) = (   0.0481904   0.0278228   0.0000000), wk =   0.1111111
        k(   14) = (   0.0481904  -0.1112910   0.0000000), wk =   0.1111111
        k(   15) = (   0.0481904  -0.0834683   0.0000000), wk =   0.1111111
        k(   16) = (   0.0481904  -0.0556455   0.0000000), wk =   0.1111111
        k(   17) = (  -0.0722856   0.0417341   0.0000000), wk =   0.0555556
        k(   18) = (  -0.0722856   0.0695569   0.0000000), wk =   0.1111111
        k(   19) = (  -0.0722856   0.0973797   0.0000000), wk =   0.1111111
        k(   20) = (  -0.0722856  -0.0417341   0.0000000), wk =   0.0555556

     Largest allocated arrays     est. size (Mb)     dimensions
     Largest temporary arrays     est. size (Mb)     dimensions

     Check: negative/imaginary core charge=   -0.000001    0.000000

     Initial potential from superposition of free atoms
     Check: negative starting charge=   -0.196784

     starting charge  168.97177, renormalised to  169.00000

[...]

     *
     * You are using vdW-DF for exchange-correlation in this calculation.
     * Please cite the following three references that made this development
     * possible:
     *
     *   M. Dion, H. Rydberg, E. Schroder, D. C. Langreth, and
     *   B. I. Lundqvist, Phys. Rev. Lett. 92, 246401 (2004).
     *
     *   T. Thonhauser, V. R. Cooper, S. Li, A. Puzder, P. Hyldgaard, and
     *   D. C. Langreth, Phys. Rev. B 76, 125112 (2007).
     *
     *   G. Roman-Perez and J. M. Soler, Phys. Rev. Lett. 103, 096102 (2009).
     *
     *
     * If you are using vdW-DF2, please also cite:
     *
     *   K. Lee, E. D. Murray, L. Kong, B. I. Lundqvist, and
     *   D. C. Langreth, Phys. Rev. B 82, 081101(R) (2010).
     *
     *
     * If you are calculating the stress with vdW-DF, please also cite:
     *
     *   R. Sabatini, E. Kucukbenli, B. Kolb, T. Thonhauser, and
     *   S. de Gironcoli, J. Phys.: Condens. Matter 24, 424209 (2012).
     *

     Carrying out vdW-DF run using the following parameters:

     Nqs =      20    Nr_points =    1024   r_max =   100.000
     q_mesh =
               0.00001000     0.04494208     0.09755937     0.15916263
               0.23128650     0.31572767     0.41458969     0.53033537
               0.66584808     0.82450364     1.01025438     1.22772762
               1.48234092     1.78043706     2.12944203     2.53805004
               3.01644009     3.57652955     4.23227104     5.00000000

     Gradients computed in reciprocal space

[...]

     Starting wfc are  109 randomized atomic wfcs

     Self-consistent Calculation

[...]

     Threshold (ethr) on eigenvalues was too large:
     Diagonalizing with lowered threshold

     Davidson diagonalization with overlap
     ethr =  1.00E-04,  avg # of iterations =  3.6

[...]

     total energy              =   -1993.36334380 Ry
     Harris-Foulkes estimate   =   -1993.36335769 Ry
     estimated scf accuracy    <       0.00001398 Ry

     iteration #  9     ecut=    36.75 Ry     beta=0.30
     Davidson diagonalization with overlap
     ethr =  8.27E-09,  avg # of iterations =  5.0

[...]

     negative rho (up, down):  2.130E-01 0.000E+00

     Adding external electric field

     Computed dipole along edir(3) :
        Dipole               -0.1332 Ry au,         -0.3385 Debye
        Dipole field         -0.0002 Ry au

        Potential amp.        0.0221 Ry
        Total length         47.2555 bohr

     End of self-consistent calculation

[...]

          k = 0.0482-0.0556 0.0000 ( 26956 PWs)   bands (ev):

[...]

          k =-0.0723-0.0417 0.0000 ( 26962 PWs)   bands (ev):

   -16.4303 -16.4182 -16.3996 -16.3924 -16.3762 -16.3664 -16.3621 -16.3605
   -16.3559 -16.3517 -16.3490 -16.3370 -16.3325 -16.3298 -16.3264 -16.3201
   -16.3167 -16.3121 -16.3084 -16.3049 -16.3019 -16.2961 -16.2917 -16.2904
   -16.2790 -16.2752 -16.2700 -16.2636 -16.2618 -16.2557 -16.2544 -16.2414
   -16.2347 -16.2325 -16.2273 -16.2183 -16.2132 -16.2121 -16.2065 -16.2050
   -16.2028 -16.1955 -16.1789 -16.1720 -16.1681 -16.1647 -16.1615 -16.1589
   -16.1568 -16.1542 -16.1509 -16.1474 -16.1270 -16.1215 -16.1159 -16.1057
   -16.0985 -16.0908 -16.0528 -16.0519  -9.2021  -9.1809  -8.4116  -8.1689
    -7.3691  -7.1919  -7.1505  -7.0748  -6.6285  -6.4067  -5.8376  -5.7865
    -1.9303  -1.0034  -0.8446  -0.8314  -0.7629  -0.6728  -0.4407  -0.1256
     0.0495   0.6393   0.6620   0.9321   1.2139   1.6918   1.8047   1.8662
     1.9580   2.2088   2.2910   2.4200   2.4625   2.4956

     the Fermi energy is     1.1284 ev

!    total energy              =   -1993.36333603 Ry
     Harris-Foulkes estimate   =   -1993.36336637 Ry
     estimated scf accuracy    <       0.00000485 Ry

     The total energy is the sum of the following terms:

     one-electron contribution =   -9044.10266695 Ry
     hartree contribution      =    4591.59581221 Ry
     xc contribution           =    -784.43199777 Ry
     ewald contribution        =    3243.61453063 Ry
     electric field correction =       0.00003109 Ry
     smearing contrib. (-TS)   =      -0.03904523 Ry

     convergence has been achieved in   9 iterations

 BEEF-vdW xc energy contributions
           1 :   -699.304223330429
           2 :    649.544311161719
           3 :   -561.935027372239
           4 :    455.706624562315
           5 :   -350.692371099098
           6 :    261.350477408829
           7 :   -193.622596875802
           8 :    145.391049742073
           9 :   -109.813715302326
          10 :    79.7061349971200
          11 :   -50.9269003648617
          12 :    23.4523387628014
          13 :  -0.109674869934793
          14 :   -15.9399349617826
          15 :    23.4432797593043
          16 :   -23.8947420614809
          17 :    20.7427077059375
          18 :   -17.6163741915182
          19 :    16.6473274037613
          20 :   -17.7766765260359
          21 :    19.3051712608188
          22 :   -19.2462595128839
          23 :    16.6487165993708
          24 :   -12.1595513789014
          25 :    7.58945581319142
          26 :   -4.82377684698542
          27 :    4.75360863030483
          28 :   -6.83159619595369
          29 :    9.45761160360576
          30 :   -10.9232751610516
          31 :   -55.8786901245318
          32 :   -40.9407014922764

     Forces acting on atoms (Ry/au):

     negative rho (up, down):  2.130E-01 0.000E+00
     atom    1 type  1   force =     0.00000846   -0.00361658   -0.01046786
     atom    2 type  1   force =     0.00000476   -0.00001648   -0.00788429
     atom    3 type  1   force =     0.00086545    0.00117764   -0.00865471
     atom    4 type  1   force =    -0.00087632    0.00121449   -0.00870481
     atom    5 type  1   force =     0.00080359   -0.00204181    0.00839207
     atom    6 type  1   force =    -0.00080960   -0.00204997    0.00838926
     atom    7 type  1   force =     0.00000012   -0.00011489    0.00868355
     atom    8 type  1   force =     0.00000001    0.00487385    0.01091818
     atom    9 type  1   force =    -0.00086578    0.00008933   -0.00006731
     atom   10 type  1   force =     0.00085505    0.00012929   -0.00007078
     atom   11 type  1   force =     0.00004388   -0.00045473   -0.00037868
     atom   12 type  1   force =    -0.00003751    0.00096522   -0.00003077
     atom   13 type  2   force =     0.00000791   -0.00015536   -0.00012385

     Total force =     0.026675     Total SCF correction =     0.014387
     SCF correction compared to forces is large: reduce conv_thr to get better values

     entering subroutine stress ...

     negative rho (up, down):  2.130E-01 0.000E+00
          total   stress  (Ry/bohr**3)                   (kbar)     P=    6.86
   0.00006239  -0.00000001   0.00000000          9.18     -0.00      0.00
  -0.00000001   0.00006049   0.00000148         -0.00      8.90      0.22
   0.00000000   0.00000148   0.00001704          0.00      0.22      2.51

 !ASE

     Writing output data file calc.save

     General routines

     Parallel routines

   This run was terminated on:  17:31:31  16Jan2018

   JOB DONE.
Job  /afs/slac/g/suncat/bin/suncat-tsmpirun -x LD_LIBRARY_PATH -wdir /scratch/qe842467_XjzXC pw.x -in pw.inp

TID   HOST_NAME   COMMAND_LINE            STATUS            TERMINATION_TIME
00000 suncat0100 pw.x -in pw.inp   Done                     01/16/2018 17:31:31
00001 suncat0100 pw.x -in pw.inp   Done                     01/16/2018 17:31:31
00002 suncat0100 pw.x -in pw.inp   Done                     01/16/2018 17:31:31
00003 suncat0100 pw.x -in pw.inp   Done                     01/16/2018 17:31:31
00004 suncat0100 pw.x -in pw.inp   Done                     01/16/2018 17:31:31
00005 suncat0100 pw.x -in pw.inp   Done                     01/16/2018 17:31:31
00006 suncat0100 pw.x -in pw.inp   Done                     01/16/2018 17:31:31
00007 suncat0100 pw.x -in pw.inp   Done                     01/16/2018 17:31:31
00008 suncat0283 pw.x -in pw.inp   Done                     01/16/2018 17:31:31
00009 suncat0283 pw.x -in pw.inp   Done                     01/16/2018 17:31:31
00010 suncat0283 pw.x -in pw.inp   Done                     01/16/2018 17:31:31
00011 suncat0283 pw.x -in pw.inp   Done                     01/16/2018 17:31:31
00012 suncat0283 pw.x -in pw.inp   Done                     01/16/2018 17:31:31
00013 suncat0283 pw.x -in pw.inp   Done                     01/16/2018 17:31:31
00014 suncat0283 pw.x -in pw.inp   Done                     01/16/2018 17:31:31
00015 suncat0283 pw.x -in pw.inp   Done                     01/16/2018 17:31:31
00016 suncat0282 pw.x -in pw.inp   Done                     01/16/2018 17:31:31
00017 suncat0282 pw.x -in pw.inp   Done                     01/16/2018 17:31:31
00018 suncat0282 pw.x -in pw.inp   Done                     01/16/2018 17:31:31
00019 suncat0282 pw.x -in pw.inp   Done                     01/16/2018 17:31:31
00020 suncat0282 pw.x -in pw.inp   Done                     01/16/2018 17:31:31
00021 suncat0282 pw.x -in pw.inp   Done                     01/16/2018 17:31:31
00022 suncat0282 pw.x -in pw.inp   Done                     01/16/2018 17:31:31
00023 suncat0282 pw.x -in pw.inp   Done                     01/16/2018 17:31:31
00024 suncat0214 pw.x -in pw.inp   Done                     01/16/2018 17:31:31
00025 suncat0214 pw.x -in pw.inp   Done                     01/16/2018 17:31:31
00026 suncat0214 pw.x -in pw.inp   Done                     01/16/2018 17:31:31
00027 suncat0214 pw.x -in pw.inp   Done                     01/16/2018 17:31:31
00028 suncat0214 pw.x -in pw.inp   Done                     01/16/2018 17:31:31
00029 suncat0214 pw.x -in pw.inp   Done                     01/16/2018 17:31:31
00030 suncat0214 pw.x -in pw.inp   Done                     01/16/2018 17:31:31
00031 suncat0214 pw.x -in pw.inp   Done                     01/16/2018 17:31:31