     Program PWSCF v.5.1rc2 (svn rev. ) starts on 18Apr2018 at  1:34:51

     Current dimensions of program PWSCF are:
     Max number of different atomic species (ntypx) = 10
     Max number of k-points (npk) =  40000
     Max angular momentum in pseudopotentials (lmaxx) =  3
     Presently stress not available with electric field

     IMPORTANT: XC functional enforced from input :
     Exchange-correlation      = BEEF-VDW ( 1  4 27 13 2)
     Any further DFT definition will be discarded
     Please, verify this is what you really want

     Subspace diagonalization in iterative solution of the eigenvalue problem:
     a serial algorithm will be used

     bravais-lattice index     =            0
     lattice parameter (alat)  =       1.8897  a.u.
     unit-cell volume          =    6024.3322 (a.u.)^3
     number of atoms/cell      =           14
     number of atomic types    =            3
     number of electrons       =       151.00
     number of Kohn-Sham states=           85
     kinetic-energy cutoff     =      36.7493  Ry
     charge density cutoff     =     367.4932  Ry
     convergence threshold     =      1.0E-05
     mixing beta               =       0.3000
     number of iterations used =           10  plain     mixing
     Exchange-correlation      = BEEF-VDW ( 1  4 27 13 2)
     nstep                     =           50

     celldm(1)=   1.889726  celldm(2)=   0.000000  celldm(3)=   0.000000
     celldm(4)=   0.000000  celldm(5)=   0.000000  celldm(6)=   0.000000

     crystal axes: (cart. coord. in units of alat)
               a(1) = (   6.393197   0.000000   0.000000 )
               a(2) = (   3.196599   5.536671   0.000000 )
               a(3) = (   0.000000   0.000000  25.220024 )

     reciprocal axes: (cart. coord. in units 2 pi/alat)
               b(1) = (  0.156416 -0.090307  0.000000 )
               b(2) = (  0.000000  0.180614  0.000000 )
               b(3) = (  0.000000  0.000000  0.039651 )

     PseudoPot. # 1 for Hf read from file:
     /home/mamunm/src/pseudo/gbrv1.5pbe/Hf.UPF
     MD5 check sum: 8ee9378dfe14276e333edf04c5e4aa26
     Pseudo is Ultrasoft + core correction, Zval = 12.0
     Generated by new atomic code, or converted to UPF format
     Using radial grid of  921 points,  8 beta functions with:
                l(1) =   0
                l(2) =   0
                l(3) =   0
                l(4) =   1
                l(5) =   1
                l(6) =   2
                l(7) =   2
                l(8) =   3
     Q(r) pseudized with  6 coefficients,  rinner =    1.200   1.200   1.200
                                                       1.200   1.200   1.200
                                                       1.200

     PseudoPot. # 2 for O  read from file:
     /home/mamunm/src/pseudo/gbrv1.5pbe/O.UPF
     MD5 check sum: 734c27235a0248c51dbae37a1fbe46ec
     Pseudo is Ultrasoft + core correction, Zval =  6.0
     Generated by new atomic code, or converted to UPF format
     Using radial grid of  737 points,  5 beta functions with:
                l(1) =   0
                l(2) =   0
                l(3) =   1
                l(4) =   1
                l(5) =   2
     Q(r) pseudized with  8 coefficients,  rinner =    0.900   0.900   0.900
                                                       0.900   0.900

     PseudoPot. # 3 for H  read from file:
     /home/mamunm/src/pseudo/gbrv1.5pbe/H.UPF
     MD5 check sum: 761ae9a214b05c3daf00ab9f6b793d6f
     Pseudo is Ultrasoft, Zval =  1.0
     Generated by new atomic code, or converted to UPF format
     Using radial grid of  615 points,  2 beta functions with:
                l(1) =   0
                l(2) =   0
     Q(r) pseudized with  8 coefficients,  rinner =    0.700

     vdW kernel table read from file vdW_kernel_table
     MD5 check sum: 095c7af220d748ca6e76c0b4c6cfb241

     atomic species   valence    mass     pseudopotential
        Hf1           12.00   178.49000     Hf( 1.00)
        O1             6.00    15.99900     O ( 1.00)
        H1             1.00     1.00800     H ( 1.00)

     No symmetry found

   Cartesian axes

     site n.     atom                  positions (alat units)
         1           Hf1 tau(   1) = (   1.5982993   0.9227785  10.0000000  )
         2           Hf1 tau(   2) = (   4.7948978   0.9227785  10.0000000  )
         3           Hf1 tau(   3) = (   3.1965986   3.6911141  10.0000000  )
         4           Hf1 tau(   4) = (   6.3931971   3.6911141  10.0000000  )
         5           Hf1 tau(   5) = (   6.3931971   1.8455570  12.6100118  )
         6           Hf1 tau(   6) = (   3.1965986   1.8455570  12.6100118  )
         7           Hf1 tau(   7) = (   7.9914964   4.6138926  12.6100118  )
         8           Hf1 tau(   8) = (   4.7948978   4.6138926  12.6100118  )
         9           Hf1 tau(   9) = (   0.0000000   0.0000000  15.2200236  )
        10           Hf1 tau(  10) = (   3.1965986   0.0000000  15.2200236  )
        11           Hf1 tau(  11) = (   1.5982993   2.7683356  15.2200236  )
        12           Hf1 tau(  12) = (   4.7948978   2.7683356  15.2200236  )
        13           O1  tau(  13) = (   0.0000000   0.0000000  17.2685236  )
        14           H1  tau(  14) = (   0.0000000   0.0000000  18.2185236  )

     number of k points=    20  Fermi-Dirac smearing, width (Ry)=  0.0110
                       cart. coord. in units 2pi/alat
        k(    1) = (   0.0000000   0.0000000   0.0000000), wk =   0.0555556
        k(    2) = (   0.0000000   0.0301023   0.0000000), wk =   0.1111111
        k(    3) = (   0.0000000   0.0602046   0.0000000), wk =   0.1111111
        k(    4) = (   0.0000000  -0.0903070   0.0000000), wk =   0.0555556
        k(    5) = (   0.0260694  -0.0150512   0.0000000), wk =   0.1111111
        k(    6) = (   0.0260694   0.0150512   0.0000000), wk =   0.1111111
        k(    7) = (   0.0260694   0.0451535   0.0000000), wk =   0.1111111
        k(    8) = (   0.0260694  -0.1053581   0.0000000), wk =   0.1111111
        k(    9) = (   0.0260694  -0.0752558   0.0000000), wk =   0.1111111
        k(   10) = (   0.0260694  -0.0451535   0.0000000), wk =   0.1111111
        k(   11) = (   0.0521388  -0.0301023   0.0000000), wk =   0.1111111
        k(   12) = (   0.0521388   0.0000000   0.0000000), wk =   0.1111111
        k(   13) = (   0.0521388   0.0301023   0.0000000), wk =   0.1111111
        k(   14) = (   0.0521388  -0.1204093   0.0000000), wk =   0.1111111
        k(   15) = (   0.0521388  -0.0903070   0.0000000), wk =   0.1111111
        k(   16) = (   0.0521388  -0.0602046   0.0000000), wk =   0.1111111
        k(   17) = (  -0.0782081   0.0451535   0.0000000), wk =   0.0555556
        k(   18) = (  -0.0782081   0.0752558   0.0000000), wk =   0.1111111
        k(   19) = (  -0.0782081   0.1053581   0.0000000), wk =   0.1111111
        k(   20) = (  -0.0782081  -0.0451535   0.0000000), wk =   0.0555556

     Largest allocated arrays     est. size (Mb)     dimensions
     Largest temporary arrays     est. size (Mb)     dimensions

     Check: negative/imaginary core charge=   -0.000003    0.000000

     Initial potential from superposition of free atoms
     Check: negative starting charge=   -1.301555

     starting charge  126.99997, renormalised to  151.00000

     negative rho (up, down):  1.548E+00 0.000E+00

     *
     * You are using vdW-DF for exchange-correlation in this calculation.
     * Please cite the following three references that made this development
     * possible:
     *
     *   M. Dion, H. Rydberg, E. Schroder, D. C. Langreth, and
     *   B. I. Lundqvist, Phys. Rev. Lett. 92, 246401 (2004).
     *
     *   T. Thonhauser, V. R. Cooper, S. Li, A. Puzder, P. Hyldgaard, and
     *   D. C. Langreth, Phys. Rev. B 76, 125112 (2007).
     *
     *   G. Roman-Perez and J. M. Soler, Phys. Rev. Lett. 103, 096102 (2009).
     *
     *
     * If you are using vdW-DF2, please also cite:
     *
     *   K. Lee, E. D. Murray, L. Kong, B. I. Lundqvist, and
     *   D. C. Langreth, Phys. Rev. B 82, 081101(R) (2010).
     *
     *
     * If you are calculating the stress with vdW-DF, please also cite:
     *
     *   R. Sabatini, E. Kucukbenli, B. Kolb, T. Thonhauser, and
     *   S. de Gironcoli, J. Phys.: Condens. Matter 24, 424209 (2012).
     *

     Carrying out vdW-DF run using the following parameters:

     Nqs =      20    Nr_points =    1024   r_max =   100.000
     q_mesh =
               0.00001000     0.04494208     0.09755937     0.15916263
               0.23128650     0.31572767     0.41458969     0.53033537
               0.66584808     0.82450364     1.01025438     1.22772762
               1.48234092     1.78043706     2.12944203     2.53805004
               3.01644009     3.57652955     4.23227104     5.00000000

     Gradients computed in reciprocal space

     Adding external electric field

     Computed dipole along edir(3) :
        Dipole              -11.9845 Ry au,        -30.4615 Debye
        Dipole field         -0.0250 Ry au

        Potential amp.        2.3233 Ry
        Total length         46.4675 bohr

     Starting wfc are  161 randomized atomic wfcs

     Self-consistent Calculation

     iteration #  1     ecut=    36.75 Ry     beta=0.30
     Davidson diagonalization with overlap
     ethr =  1.00E-02,  avg # of iterations =  9.7

[...]

     total energy              =   -1246.01654902 Ry
     Harris-Foulkes estimate   =   -1957.68914453 Ry
     estimated scf accuracy    <    1523.94449428 Ry

[...]

     End of self-consistent calculation

          k = 0.0000 0.0000 0.0000 ( 22729 PWs)   bands (ev):

   -60.9080 -60.8793 -60.8785 -60.8415 -60.8332 -60.8034 -60.7949 -60.7937
   -60.4213 -60.3920 -60.3835 -60.3826 -29.6727 -29.6723 -29.6160 -29.5893
   -29.5806 -29.5800 -29.5733 -29.4955 -29.4896 -29.4890 -29.4484 -29.3772
   -29.3648 -29.3639 -29.2831 -29.2221 -29.2220 -29.1715 -29.1711 -29.1684
   -29.1249 -29.1237 -29.1232 -29.1066 -29.1063 -29.0425 -29.0424 -28.8838
   -28.8736 -28.8697 -28.8690 -28.7821 -28.7818 -28.7745 -28.6574 -28.6573
   -18.3614  -6.5485  -4.6752  -3.4027  -2.2176  -2.2176  -2.1343  -1.2366
    -1.2365  -1.2087  -0.9602  -0.9602  -0.9576  -0.6099  -0.6099  -0.5500
     0.0915   0.1035   0.1035   0.8169   0.9559   0.9561   1.7832   1.8962
     2.0985   2.1233   2.2233   2.2234   2.3859   2.3860   2.4118   2.6717
     2.8704   2.9685   2.9687   3.0366   3.0368

[...]

          k =-0.0782 0.0452 0.0000 ( 22668 PWs)   bands (ev):

[...]

     the Fermi energy is     1.8015 ev

!    total energy              =   -1960.48756776 Ry
     Harris-Foulkes estimate   =   -1960.48756046 Ry
     estimated scf accuracy    <       0.00000399 Ry

     The total energy is the sum of the following terms:

     one-electron contribution =   -8558.51806426 Ry
     hartree contribution      =    4266.86589186 Ry
     xc contribution           =    -936.09335304 Ry
     ewald contribution        =    3267.37585191 Ry
     electric field correction =       0.00029268 Ry
     smearing contrib. (-TS)   =      -0.11818691 Ry

     convergence has been achieved in  40 iterations

 BEEF-vdW xc energy contributions
           1 :   -846.130978732503
           2 :    786.027310977414
           3 :   -679.688203959396
           4 :    549.262369297846
           5 :   -417.503649730743
           6 :    301.420583817466
           7 :   -209.567523957550
           8 :    143.018620363122
           9 :   -98.4584255107102
          10 :    71.1819172033571
          11 :   -56.6666226711028
          12 :    50.6579448451675
          13 :   -48.7406615571590
          14 :    46.3915595290033
          15 :   -39.8840930873871
          16 :    27.5354431526141
          17 :   -10.4304891351645
          18 :   -7.99442721307082
          19 :    23.4073860514368
          20 :   -32.3866116239392
          21 :    33.6865700101594
          22 :   -28.4394647129511
          23 :    19.3629666834029
          24 :   -9.55625930691212
          25 :    1.52980317194238
          26 :    3.18331452877374
          27 :   -3.94623184924023
          28 :   0.816415623341072
          29 :    5.50643581573991
          30 :   -13.6140860915593
          31 :   -61.0091833992485
          32 :   -43.8068009532053

     Forces acting on atoms (Ry/au):

     negative rho (up, down):  1.379E+00 0.000E+00
     atom    1 type  1   force =     0.00050538    0.00042564    0.02567121
     atom    2 type  1   force =    -0.00050890    0.00037774    0.02569115
     atom    3 type  1   force =    -0.00003775   -0.00069105    0.02555525
     atom    4 type  1   force =     0.00003826   -0.00010287    0.02702666
     atom    5 type  1   force =     0.00006171    0.00585552   -0.00901211
     atom    6 type  1   force =    -0.00006154   -0.00004284    0.00071045
     atom    7 type  1   force =    -0.00510943   -0.00294423   -0.00894165
     atom    8 type  1   force =     0.00511245   -0.00287408   -0.00898431
     atom    9 type  1   force =    -0.00001700    0.00009595    0.07933889
     atom   10 type  1   force =     0.00001842    0.00048454   -0.03467147
     atom   11 type  1   force =     0.00033723   -0.00027940   -0.03478589
     atom   12 type  1   force =    -0.00033845   -0.00030303   -0.03475083
     atom   13 type  2   force =    -0.00000014   -0.00000306   -0.08922444
     atom   14 type  3   force =    -0.00000025    0.00000118    0.03637711

     Total force =     0.138562     Total SCF correction =     0.005231

     entering subroutine stress ...

     negative rho (up, down):  1.379E+00 0.000E+00
          total   stress  (Ry/bohr**3)                   (kbar)     P=  -23.31
  -0.00014208  -0.00000000  -0.00000000        -20.90     -0.00     -0.00
  -0.00000000  -0.00014209   0.00000000         -0.00    -20.90      0.00
  -0.00000000   0.00000000  -0.00019121         -0.00      0.00    -28.13

     BFGS Geometry Optimization

     number of scf cycles    =   1
     number of bfgs steps    =   0

     energy   new            =   -1960.4875677638 Ry

     new trust radius        =       0.0892244416 bohr
     new conv_thr            =       0.0000099958 Ry

ATOMIC_POSITIONS (crystal)
Hf1      0.166666667   0.166666667   0.396510335    0   0   0
Hf1      0.666666667   0.166666667   0.396510335    0   0   0
Hf1      0.166666667   0.666666667   0.396510335    0   0   0
Hf1      0.666666667   0.666666667   0.396510335    0   0   0
Hf1      0.833333333   0.333333333   0.500000000    0   0   0
Hf1      0.333333333   0.333333333   0.500000000    0   0   0
Hf1      0.833333333   0.833333333   0.500000000    0   0   0
Hf1      0.333333333   0.833333333   0.500000000    0   0   0
Hf1     -0.000005992   0.000009170   0.605154387
Hf1      0.499978369   0.000046310   0.602762174
Hf1      0.000041266   0.499973296   0.602759773
Hf1      0.499986467   0.499971038   0.602760509
O1       0.000000135  -0.000000293   0.682842662
H1      -0.000000077   0.000000113   0.723146569

     Writing output data file calc.save
     Check: negative starting charge=   -1.301555
     NEW-OLD atomic charge density approx. for the potential

     Check: negative/imaginary core charge=   -0.000003    0.000000
     Check: negative starting charge=   -1.300786

[...]

     iteration #  1     ecut=    36.75 Ry     beta=0.30
     Davidson diagonalization with overlap
     c_bands:  1 eigenvalues not converged
     c_bands:  1 eigenvalues not converged
     c_bands:  1 eigenvalues not converged
     ethr =  1.00E-06,  avg # of iterations = 14.5

[...]

     energy   old            =   -1960.4875677638 Ry
     energy   new            =   -1960.4941996470 Ry

     CASE: energy  _new < energy  _old

[...]

     iteration #  1     ecut=    36.75 Ry     beta=0.30
     Davidson diagonalization with overlap
     c_bands:  2 eigenvalues not converged
     ethr =  1.00E-06,  avg # of iterations = 15.2

[...]

     Total force =     0.009886     Total SCF correction =     0.001013
     SCF correction compared to forces is large: reduce conv_thr to get better values

[...]

     Total force =     0.006931     Total SCF correction =     0.000290

[...]

     Threshold (ethr) on eigenvalues was too large:
     Diagonalizing with lowered threshold

     Davidson diagonalization with overlap
     ethr =  6.27E-08,  avg # of iterations =  1.9

[...]

     number of scf cycles    =  20
     number of bfgs steps    =  19

     energy   old            =   -1960.5247540270 Ry
     energy   new            =   -1960.5247714762 Ry

     CASE: energy  _new < energy  _old

     new trust radius        =       0.0028981613 bohr
     new conv_thr            =       0.0000001000 Ry

ATOMIC_POSITIONS (crystal)
Hf1      0.166666667   0.166666667   0.396510335    0   0   0
Hf1      0.666666667   0.166666667   0.396510335    0   0   0
Hf1      0.166666667   0.666666667   0.396510335    0   0   0
Hf1      0.666666667   0.666666667   0.396510335    0   0   0
Hf1      0.833333333   0.333333333   0.500000000    0   0   0
Hf1      0.333333333   0.333333333   0.500000000    0   0   0
Hf1      0.833333333   0.833333333   0.500000000    0   0   0
Hf1      0.333333333   0.833333333   0.500000000    0   0   0
Hf1      0.000011976  -0.000010017   0.614134348
Hf1      0.496945084   0.006107003   0.595038536
Hf1      0.006104125   0.496948325   0.595039289
Hf1      0.496946399   0.496949816   0.595037967
O1       0.000021714  -0.000040113   0.690760671
H1      -0.000002195   0.000005014   0.728988617

     Writing output data file calc.save
     Check: negative starting charge=   -1.298306
     NEW-OLD atomic charge density approx. for the potential

     Check: negative/imaginary core charge=   -0.000003    0.000000
     Check: negative starting charge=   -1.298254

[...]

     Self-consistent Calculation

[...]

     total energy              =   -1960.52477531 Ry
     Harris-Foulkes estimate   =   -1960.52477537 Ry
     estimated scf accuracy    <       0.00000040 Ry

     iteration # 10     ecut=    36.75 Ry     beta=0.30
     Davidson diagonalization with overlap
     ethr =  2.66E-10,  avg # of iterations =  1.1

[...]

     negative rho (up, down):  1.374E+00 0.000E+00

     Adding external electric field

     Computed dipole along edir(3) :
        Dipole                0.3644 Ry au,          0.9262 Debye
        Dipole field          0.0008 Ry au

        Potential amp.       -0.0706 Ry
        Total length         46.4675 bohr

     End of self-consistent calculation

[...]

          k = 0.0521-0.0602 0.0000 ( 22643 PWs)   bands (ev):

[...]

          k =-0.0782-0.0452 0.0000 ( 22668 PWs)   bands (ev):

   -60.9364 -60.8617 -60.8550 -60.8416 -60.8379 -60.6860 -60.6749 -60.6667
   -60.3757 -60.3678 -60.3591 -60.1991 -29.6490 -29.5357 -29.5211 -29.5171
   -29.4788 -29.4703 -29.4484 -29.4210 -29.4105 -29.4101 -29.3883 -29.3689
   -29.3530 -29.3463 -29.3415 -29.3097 -29.3033 -29.2515 -29.2020 -29.1790
   -29.1514 -29.1435 -29.1358 -29.0336 -28.9982 -28.9241 -28.9002 -28.8700
   -28.8538 -28.8293 -28.8076 -28.8027 -28.7083 -28.7030 -28.6631 -28.5988
   -18.4313  -6.7546  -3.1887  -3.0917  -2.4568  -2.4186  -1.9167  -1.8451
    -0.8990  -0.8733  -0.6558  -0.5781  -0.3178  -0.2491   0.5115   0.6058
     0.6591   0.8060   0.8224   0.9129   0.9895   1.1539   1.2127   1.2371
     1.2894   1.3967   1.4622   1.5860   1.6576   1.7286   1.8177   1.8209
     1.9378   2.0761   2.1510   2.2743   2.5237

     the Fermi energy is     1.7619 ev

!    total energy              =   -1960.52477524 Ry
     Harris-Foulkes estimate   =   -1960.52477548 Ry
     estimated scf accuracy    <       0.00000009 Ry

     The total energy is the sum of the following terms:

     one-electron contribution =   -8625.27725707 Ry
     hartree contribution      =    4300.37585988 Ry
     xc contribution           =    -936.31068615 Ry
     ewald contribution        =    3300.80113172 Ry
     electric field correction =       0.00027699 Ry
     smearing contrib. (-TS)   =      -0.11410060 Ry

     convergence has been achieved in  10 iterations

 BEEF-vdW xc energy contributions
           1 :   -846.354813891607
           2 :    786.316954314372
           3 :   -680.037151390623
           4 :    549.569711000021
           5 :   -417.639680141408
           6 :    301.330861865871
           7 :   -209.315849262712
           8 :    142.739666536605
           9 :   -98.2654406051568
          10 :    71.1042237070942
          11 :   -56.6518933735506
          12 :    50.6238465083056
          13 :   -48.6294524098112
          14 :    46.1984639200341
          15 :   -39.6522340913912
          16 :    27.3242706006827
          17 :   -10.2736931088068
          18 :   -8.11526813500222
          19 :    23.5532285649617
          20 :   -32.6158916349033
          21 :    34.0041477438785
          22 :   -28.7792458150506
          23 :    19.6246525610059
          24 :   -9.67268446225808
          25 :    1.51606590726783
          26 :    3.23817134315129
          27 :   -3.94250020301683
          28 :   0.713922750736856
          29 :    5.66588679399979
          30 :   -13.7479029551013
          31 :   -61.0241251603561
          32 :   -43.8303171786764

     Forces acting on atoms (Ry/au):

     negative rho (up, down):  1.374E+00 0.000E+00
     atom    1 type  1   force =    -0.00030773   -0.00017980    0.01950846
     atom    2 type  1   force =     0.00030766   -0.00017788    0.01950322
     atom    3 type  1   force =     0.00000166    0.00035634    0.01950851
     atom    4 type  1   force =    -0.00000128    0.00000096    0.02755600
     atom    5 type  1   force =     0.00000187    0.00176082   -0.01693239
     atom    6 type  1   force =    -0.00000365    0.00000302   -0.03608848
     atom    7 type  1   force =    -0.00152524   -0.00088137   -0.01693094
     atom    8 type  1   force =     0.00152497   -0.00087913   -0.01693598
     atom    9 type  1   force =    -0.00000332    0.00000724    0.00012371
     atom   10 type  1   force =     0.00000037    0.00010314    0.00022673
     atom   11 type  1   force =     0.00009093   -0.00005826    0.00022630
     atom   12 type  1   force =    -0.00008636   -0.00005584    0.00022952
     atom   13 type  2   force =    -0.00000042    0.00000169   -0.00003117
     atom   14 type  3   force =     0.00000055   -0.00000091    0.00003651

     Total force =     0.000454     Total SCF correction =     0.000852
     SCF correction compared to forces is large: reduce conv_thr to get better values

     entering subroutine stress ...

     negative rho (up, down):  1.374E+00 0.000E+00
          total   stress  (Ry/bohr**3)                   (kbar)     P=  -17.46
  -0.00013039   0.00000000  -0.00000000        -19.18      0.00     -0.00
   0.00000000  -0.00013039   0.00000000          0.00    -19.18      0.00
  -0.00000000   0.00000000  -0.00009520         -0.00      0.00    -14.00

     bfgs converged in  21 scf cycles and  20 bfgs steps
     (criteria: energy <  1.0E+00, force <  1.9E-03)

     End of BFGS Geometry Optimization

     Final energy   =   -1960.5247752386 Ry
Begin final coordinates

ATOMIC_POSITIONS (crystal)
Hf1      0.166666667   0.166666667   0.396510335    0   0   0
Hf1      0.666666667   0.166666667   0.396510335    0   0   0
Hf1      0.166666667   0.666666667   0.396510335    0   0   0
Hf1      0.666666667   0.666666667   0.396510335    0   0   0
Hf1      0.833333333   0.333333333   0.500000000    0   0   0
Hf1      0.333333333   0.333333333   0.500000000    0   0   0
Hf1      0.833333333   0.833333333   0.500000000    0   0   0
Hf1      0.333333333   0.833333333   0.500000000    0   0   0
Hf1      0.000011976  -0.000010017   0.614134348
Hf1      0.496945084   0.006107003   0.595038536
Hf1      0.006104125   0.496948325   0.595039289
Hf1      0.496946399   0.496949816   0.595037967
O1       0.000021714  -0.000040113   0.690760671
H1      -0.000002195   0.000005014   0.728988617
End final coordinates

     Writing output data file calc.save

     General routines

     Parallel routines

   This run was terminated on:   3:48:14  18Apr2018

   JOB DONE.