     Program PWSCF v.5.1rc2 (svn rev. 11289) starts on  2May2018 at 16:30: 2

     Current dimensions of program PWSCF are:
     Max number of different atomic species (ntypx) = 10
     Max number of k-points (npk) =  40000
     Max angular momentum in pseudopotentials (lmaxx) =  3
     Presently stress not available with electric field

     IMPORTANT: XC functional enforced from input :
     Exchange-correlation      = BEEF-VDW ( 1  4 27 13 2)
     Any further DFT definition will be discarded
     Please, verify this is what you really want

     Subspace diagonalization in iterative solution of the eigenvalue problem:
     a serial algorithm will be used

     bravais-lattice index     =            0
     lattice parameter (alat)  =       1.8897  a.u.
     unit-cell volume          =    4301.6107 (a.u.)^3
     number of atoms/cell      =           13
     number of atomic types    =            2
     number of electrons       =       181.00
     number of Kohn-Sham states=          100
     kinetic-energy cutoff     =      36.7493  Ry
     charge density cutoff     =     367.4932  Ry
     convergence threshold     =      1.0E-05
     mixing beta               =       0.3000
     number of iterations used =           10  plain     mixing
     Exchange-correlation      = BEEF-VDW ( 1  4 27 13 2)
     nstep                     =           50

     celldm(1)=   1.889726  celldm(2)=   0.000000  celldm(3)=   0.000000
     celldm(4)=   0.000000  celldm(5)=   0.000000  celldm(6)=   0.000000

     crystal axes: (cart. coord. in units of alat)
               a(1) = (   5.483647   0.000000   0.000000 )
               a(2) = (   2.741823   4.748977   0.000000 )
               a(3) = (   0.000000   0.000000  24.477379 )

     reciprocal axes: (cart. coord. in units 2 pi/alat)
               b(1) = (  0.182360 -0.105286  0.000000 )
               b(2) = (  0.000000  0.210572  0.000000 )
               b(3) = (  0.000000  0.000000  0.040854 )

     PseudoPot. # 1 for Tc read from file:
     /u/if/mamunm/psp/gbrv1.5pbe/Tc.UPF
     MD5 check sum: 9eb49e5b028550b2339a02317eb7b844
     Pseudo is Ultrasoft + core correction, Zval = 15.0
     Generated by new atomic code, or converted to UPF format
     Using radial grid of  965 points,  6 beta functions with:
                l(1) =   0
                l(2) =   0
                l(3) =   1
                l(4) =   1
                l(5) =   2
                l(6) =   2
     Q(r) pseudized with  8 coefficients,  rinner =    1.300   1.300   1.300
                                                       1.300   1.300

     PseudoPot. # 2 for H  read from file:
     /u/if/mamunm/psp/gbrv1.5pbe/H.UPF
     MD5 check sum: 761ae9a214b05c3daf00ab9f6b793d6f
     Pseudo is Ultrasoft, Zval =  1.0
     Generated by new atomic code, or converted to UPF format
     Using radial grid of  615 points,  2 beta functions with:
                l(1) =   0
                l(2) =   0
     Q(r) pseudized with  8 coefficients,  rinner =    0.700

     vdW kernel table read from file vdW_kernel_table
     MD5 check sum: 095c7af220d748ca6e76c0b4c6cfb241

     atomic species   valence    mass     pseudopotential
        Tc1           15.00    97.90721     Tc( 1.00)
        H1             1.00     1.00800     H ( 1.00)

     No symmetry found

   Cartesian axes

     site n.     atom                  positions (alat units)
         1           Tc1 tau(   1) = (   1.3709117   0.7914962  10.0000000  )
         2           Tc1 tau(   2) = (   4.1127351   0.7914962  10.0000000  )
         3           Tc1 tau(   3) = (   2.7418234   3.1659850  10.0000000  )
         4           Tc1 tau(   4) = (   5.4836469   3.1659850  10.0000000  )
         5           Tc1 tau(   5) = (   5.4836469   1.5829925  12.2386895  )
         6           Tc1 tau(   6) = (   2.7418234   1.5829925  12.2386895  )
         7           Tc1 tau(   7) = (   6.8545586   3.9574812  12.2386895  )
         8           Tc1 tau(   8) = (   4.1127351   3.9574812  12.2386895  )
         9           Tc1 tau(   9) = (   0.0000000   0.0000000  14.4773789  )
        10           Tc1 tau(  10) = (   2.7418234   0.0000000  14.4773789  )
        11           Tc1 tau(  11) = (   1.3709117   2.3744887  14.4773789  )
        12           Tc1 tau(  12) = (   4.1127351   2.3744887  14.4773789  )
        13           H1  tau(  13) = (   2.7418234   1.5829925  15.6343789  )

     number of k points=    20  Fermi-Dirac smearing, width (Ry)=  0.0110
                       cart. coord. in units 2pi/alat
        k(    1) = (   0.0000000   0.0000000   0.0000000), wk =   0.0555556
        k(    2) = (   0.0000000   0.0350953   0.0000000), wk =   0.1111111
        k(    3) = (   0.0000000   0.0701905   0.0000000), wk =   0.1111111
        k(    4) = (   0.0000000  -0.1052858   0.0000000), wk =   0.0555556
        k(    5) = (   0.0303934  -0.0175476   0.0000000), wk =   0.1111111
        k(    6) = (   0.0303934   0.0175476   0.0000000), wk =   0.1111111
        k(    7) = (   0.0303934   0.0526429   0.0000000), wk =   0.1111111
        k(    8) = (   0.0303934  -0.1228335   0.0000000), wk =   0.1111111
        k(    9) = (   0.0303934  -0.0877382   0.0000000), wk =   0.1111111
        k(   10) = (   0.0303934  -0.0526429   0.0000000), wk =   0.1111111
        k(   11) = (   0.0607868  -0.0350953   0.0000000), wk =   0.1111111
        k(   12) = (   0.0607868   0.0000000   0.0000000), wk =   0.1111111
        k(   13) = (   0.0607868   0.0350953   0.0000000), wk =   0.1111111
        k(   14) = (   0.0607868  -0.1403811   0.0000000), wk =   0.1111111
        k(   15) = (   0.0607868  -0.1052858   0.0000000), wk =   0.1111111
        k(   16) = (   0.0607868  -0.0701905   0.0000000), wk =   0.1111111
        k(   17) = (  -0.0911802   0.0526429   0.0000000), wk =   0.0555556
        k(   18) = (  -0.0911802   0.0877382   0.0000000), wk =   0.1111111
        k(   19) = (  -0.0911802   0.1228335   0.0000000), wk =   0.1111111
        k(   20) = (  -0.0911802  -0.0526429   0.0000000), wk =   0.0555556

     Largest allocated arrays     est. size (Mb)     dimensions
     Largest temporary arrays     est. size (Mb)     dimensions

     Check: negative/imaginary core charge=   -0.000022    0.000000

     Initial potential from superposition of free atoms
     Check: negative starting charge=   -1.504969

     starting charge  168.99966, renormalised to  181.00000

     negative rho (up, down):  1.612E+00 0.000E+00

     *
     * You are using vdW-DF for exchange-correlation in this calculation.
     * Please cite the following three references that made this development
     * possible:
     *
     *   M. Dion, H. Rydberg, E. Schroder, D. C. Langreth, and
     *   B. I. Lundqvist, Phys. Rev. Lett. 92, 246401 (2004).
     *
     *   T. Thonhauser, V. R. Cooper, S. Li, A. Puzder, P. Hyldgaard, and
     *   D. C. Langreth, Phys. Rev. B 76, 125112 (2007).
     *
     *   G. Roman-Perez and J. M. Soler, Phys. Rev. Lett. 103, 096102 (2009).
     *
     *
     * If you are using vdW-DF2, please also cite:
     *
     *   K. Lee, E. D. Murray, L. Kong, B. I. Lundqvist, and
     *   D. C. Langreth, Phys. Rev. B 82, 081101(R) (2010).
     *
     *
     * If you are calculating the stress with vdW-DF, please also cite:
     *
     *   R. Sabatini, E. Kucukbenli, B. Kolb, T. Thonhauser, and
     *   S. de Gironcoli, J. Phys.: Condens. Matter 24, 424209 (2012).
     *

     Carrying out vdW-DF run using the following parameters:

     Nqs =      20    Nr_points =    1024   r_max =   100.000
     q_mesh =
               0.00001000     0.04494208     0.09755937     0.15916263
               0.23128650     0.31572767     0.41458969     0.53033537
               0.66584808     0.82450364     1.01025438     1.22772762
               1.48234092     1.78043706     2.12944203     2.53805004
               3.01644009     3.57652955     4.23227104     5.00000000

     Gradients computed in reciprocal space

     Adding external electric field

     Computed dipole along edir(3) :
        Dipole               -0.4556 Ry au,         -1.1580 Debye
        Dipole field         -0.0013 Ry au

        Potential amp.        0.1200 Ry
        Total length         45.0992 bohr

     Starting wfc are  157 randomized atomic wfcs

     Self-consistent Calculation

     iteration #  1     ecut=    36.75 Ry     beta=0.30
     Davidson diagonalization with overlap
     ethr =  1.00E-02,  avg # of iterations =  2.1

[...]

     total energy              =   -2099.07133728 Ry
     Harris-Foulkes estimate   =   -2109.29674955 Ry
     estimated scf accuracy    <      23.33850128 Ry

[...]

     End of self-consistent calculation

          k = 0.0000 0.0000 0.0000 ( 16073 PWs)   bands (ev):

   -64.8585 -64.7095 -64.7090 -64.6932 -64.6564 -64.5820 -64.5438 -64.5436
   -64.4944 -64.4599 -64.4597 -64.4572 -37.2930 -37.2851 -37.2849 -37.1820
   -37.1380 -37.1101 -37.1100 -36.9917 -36.9679 -36.9678 -36.6727 -36.6336
   -36.6334 -36.6298 -36.5672 -36.5633 -36.5631 -36.5462 -36.5460 -36.5202
   -36.4007 -36.4005 -36.3812 -36.3379 -36.3378 -36.3246 -36.3235 -36.3235
   -36.3182 -36.2505 -36.2493 -36.2492 -36.1207 -36.1206 -36.0532 -36.0532
    -4.4299  -3.6617  -2.7733  -2.7732  -2.7467  -2.6629  -2.3902  -2.3374
    -2.3373  -2.1604  -2.1543  -2.1543  -2.0531  -1.8049  -1.8048  -1.2355
    -0.6288  -0.6288  -0.1595   0.1918   0.1918   0.3955   0.4712   0.7420
     0.7420   1.0519   1.0519   1.1376   1.1377   1.1439   1.2116   1.3023
     1.3023   1.6678   1.6679   1.6989   2.4945   2.7477   2.7477   2.7869
     2.8267   2.8269   3.1359   3.1359   3.2301   3.6188   3.6188   4.0776
     4.1328   4.1329   4.3414   4.4504

[...]

          k =-0.0912 0.0526 0.0000 ( 16164 PWs)   bands (ev):

[...]

     the Fermi energy is     2.4349 ev

!    total energy              =   -2104.56459129 Ry
     Harris-Foulkes estimate   =   -2104.56459431 Ry
     estimated scf accuracy    <       0.00000287 Ry

     The total energy is the sum of the following terms:

     one-electron contribution =  -18673.35013950 Ry
     hartree contribution      =    9335.46960835 Ry
     xc contribution           =    -397.67865218 Ry
     ewald contribution        =    7631.08880246 Ry
     electric field correction =       0.00000000 Ry
     smearing contrib. (-TS)   =      -0.09421043 Ry

     convergence has been achieved in  22 iterations

 BEEF-vdW xc energy contributions
           1 :   -348.487363217054
           2 :    320.455458921295
           3 :   -270.561776519610
           4 :    208.797602855712
           5 :   -145.876963203999
           6 :    90.2439615092273
           7 :   -46.3955900772451
           8 :    14.7679251182107
           9 :    6.99248457125486
          10 :   -22.1757963561486
          11 :    33.3373753596579
          12 :   -41.4505552728194
          13 :    45.9877471441483
          14 :   -45.7380673127437
          15 :    39.8558502151236
          16 :   -28.6704827180158
          17 :    13.9138802174969
          18 :    1.67437914699462
          19 :   -15.1705171801756
          20 :    24.3389743518012
          21 :   -28.2059634847653
          22 :    27.1249361448914
          23 :   -22.3790390079521
          24 :    15.5480499272725
          25 :   -7.95109473047569
          26 :   0.382607517622034
          27 :    6.80553038217579
          28 :   -13.4072695739601
          29 :    19.0633167331567
          30 :   -23.1472735757062
          31 :   -33.1221911376358
          32 :   -24.3065319549792

     Forces acting on atoms (Ry/au):

     negative rho (up, down):  1.589E+00 0.000E+00
     atom    1 type  1   force =    -0.00108937   -0.00062008    0.02805434
     atom    2 type  1   force =     0.00110020   -0.00061014    0.02806405
     atom    3 type  1   force =     0.00001062    0.00125864    0.02810795
     atom    4 type  1   force =    -0.00001051   -0.00001665    0.02874643
     atom    5 type  1   force =     0.00000383   -0.00155090   -0.00536299
     atom    6 type  1   force =    -0.00000260   -0.00000193    0.00527901
     atom    7 type  1   force =     0.00133078    0.00077029   -0.00531018
     atom    8 type  1   force =    -0.00132894    0.00077780   -0.00533121
     atom    9 type  1   force =     0.00000891    0.00000908   -0.02843759
     atom   10 type  1   force =    -0.00001484   -0.01785867   -0.02106239
     atom   11 type  1   force =    -0.01548357    0.00891176   -0.02107908
     atom   12 type  1   force =     0.01547594    0.00892982   -0.02105367
     atom   13 type  2   force =    -0.00000046    0.00000098   -0.01061466

     Total force =     0.056656     Total SCF correction =     0.001099

     entering subroutine stress ...

     negative rho (up, down):  1.589E+00 0.000E+00
          total   stress  (Ry/bohr**3)                   (kbar)     P=  -33.31
  -0.00022594  -0.00000000   0.00000000        -33.24     -0.00      0.00
  -0.00000000  -0.00022595  -0.00000000         -0.00    -33.24     -0.00
   0.00000000  -0.00000000  -0.00022752          0.00     -0.00    -33.47

     BFGS Geometry Optimization

     number of scf cycles    =   1
     number of bfgs steps    =   0

     energy   new            =   -2104.5645912911 Ry

     new trust radius        =       0.0284375919 bohr
     new conv_thr            =       0.0000099958 Ry

ATOMIC_POSITIONS (crystal)
Tc1      0.166666667   0.166666667   0.408540475    0   0   0
Tc1      0.666666667   0.166666667   0.408540475    0   0   0
Tc1      0.166666667   0.666666667   0.408540475    0   0   0
Tc1      0.666666667   0.666666667   0.408540475    0   0   0
Tc1      0.833333333   0.333333333   0.500000000    0   0   0
Tc1      0.333333333   0.333333333   0.500000000    0   0   0
Tc1      0.833333333   0.833333333   0.500000000    0   0   0
Tc1      0.333333333   0.833333333   0.500000000    0   0   0
Tc1      0.000000354   0.000001012   0.590844732
Tc1      0.500993561  -0.001989987   0.591004177
Tc1     -0.001990697   0.500993035   0.591003816
Tc1      0.500995920   0.500995047   0.591004365
H1       0.333333234   0.333333443   0.638498180

     Writing output data file calc.save
     Check: negative starting charge=   -1.504969
     NEW-OLD atomic charge density approx. for the potential

     Check: negative/imaginary core charge=   -0.000022    0.000000
     Check: negative starting charge=   -1.507492

[...]

     iteration #  1     ecut=    36.75 Ry     beta=0.30
     Davidson diagonalization with overlap
     c_bands:  1 eigenvalues not converged
     ethr =  1.00E-06,  avg # of iterations = 11.3

[...]

     Total force =     0.046351     Total SCF correction =     0.005712
     SCF correction compared to forces is large: reduce conv_thr to get better values

[...]

     energy   old            =   -2104.5645912911 Ry
     energy   new            =   -2104.5675084095 Ry

     CASE: energy  _new < energy  _old

     WARNING: bfgs curvature condition failed, Theta= 0.986
     new trust radius        =       0.0312813511 bohr
     new conv_thr            =       0.0000001000 Ry

[...]

     Total force =     0.008713     Total SCF correction =     0.000399

[...]

     number of scf cycles    =  11
     number of bfgs steps    =  10

     energy   old            =   -2104.5780227917 Ry
     energy   new            =   -2104.5781593271 Ry

     CASE: energy  _new < energy  _old

     new trust radius        =       0.0051930391 bohr
     new conv_thr            =       0.0000001000 Ry

ATOMIC_POSITIONS (crystal)
Tc1      0.166666667   0.166666667   0.408540475    0   0   0
Tc1      0.666666667   0.166666667   0.408540475    0   0   0
Tc1      0.166666667   0.666666667   0.408540475    0   0   0
Tc1      0.666666667   0.666666667   0.408540475    0   0   0
Tc1      0.833333333   0.333333333   0.500000000    0   0   0
Tc1      0.333333333   0.333333333   0.500000000    0   0   0
Tc1      0.833333333   0.833333333   0.500000000    0   0   0
Tc1      0.333333333   0.833333333   0.500000000    0   0   0
Tc1     -0.000001416  -0.000000500   0.587302918
Tc1      0.504211261  -0.008418898   0.587608712
Tc1     -0.008417301   0.504209201   0.587608295
Tc1      0.504209607   0.504208498   0.587608207
H1       0.333331130   0.333333999   0.630538985

     Writing output data file calc.save
     Check: negative starting charge=   -1.500716
     NEW-OLD atomic charge density approx. for the potential

     Check: negative/imaginary core charge=   -0.000022    0.000000
     Check: negative starting charge=   -1.500628

[...]

     Self-consistent Calculation

[...]

     Threshold (ethr) on eigenvalues was too large:
     Diagonalizing with lowered threshold

     Davidson diagonalization with overlap
     ethr =  8.53E-08,  avg # of iterations =  1.6

[...]

     total energy              =   -2104.57818295 Ry
     Harris-Foulkes estimate   =   -2104.57818299 Ry
     estimated scf accuracy    <       0.00000024 Ry

     iteration # 11     ecut=    36.75 Ry     beta=0.30
     Davidson diagonalization with overlap
     ethr =  1.19E-10,  avg # of iterations =  3.9

[...]

     negative rho (up, down):  1.586E+00 0.000E+00

     Adding external electric field

     Computed dipole along edir(3) :
        Dipole                0.0459 Ry au,          0.1168 Debye
        Dipole field          0.0001 Ry au

        Potential amp.       -0.0121 Ry
        Total length         45.0992 bohr

     End of self-consistent calculation

[...]

          k = 0.0608-0.0702 0.0000 ( 16203 PWs)   bands (ev):

[...]

          k =-0.0912-0.0526 0.0000 ( 16164 PWs)   bands (ev):

   -64.7837 -64.7736 -64.7014 -64.6887 -64.5640 -64.5336 -64.5096 -64.5091
   -64.4964 -64.4490 -64.4484 -64.4402 -37.1569 -37.1352 -37.1107 -37.0886
   -37.0348 -37.0197 -36.9027 -36.8860 -36.8400 -36.8360 -36.7903 -36.7762
   -36.6261 -36.5490 -36.5342 -36.5295 -36.5191 -36.5013 -36.4960 -36.4708
   -36.4673 -36.4568 -36.4488 -36.4455 -36.4446 -36.4297 -36.4017 -36.4014
   -36.3255 -36.2948 -36.2575 -36.2430 -36.2046 -36.1574 -36.1394 -36.1277
    -3.6247  -2.5479  -2.4627  -1.9092  -1.8887  -1.8278  -1.7247  -1.5875
    -1.5748  -1.3374  -1.2561  -1.1688  -1.1599  -0.9109  -0.8535  -0.8212
    -0.6521  -0.3553  -0.3025  -0.1960  -0.1721  -0.0160  -0.0149   0.4996
     0.5400   0.7471   0.8211   0.8423   0.8880   1.0739   1.0832   1.1169
     1.1567   1.1797   1.2726   1.3117   1.3472   1.4296   1.4322   1.4472
     2.2081   2.2615   2.2956   2.3529   2.4772   2.4785   2.8566   2.8751
     2.9387   3.0925   3.1529   3.1686

     the Fermi energy is     2.4635 ev

!    total energy              =   -2104.57818294 Ry
     Harris-Foulkes estimate   =   -2104.57818289 Ry
     estimated scf accuracy    <       0.00000003 Ry

     The total energy is the sum of the following terms:

     one-electron contribution =  -18939.59069424 Ry
     hartree contribution      =    9468.63096079 Ry
     xc contribution           =    -397.93293980 Ry
     ewald contribution        =    7764.40733286 Ry
     electric field correction =       0.00000617 Ry
     smearing contrib. (-TS)   =      -0.09284872 Ry

     convergence has been achieved in  11 iterations

 BEEF-vdW xc energy contributions
           1 :   -348.746044075485
           2 :    320.802420391938
           3 :   -271.027569697396
           4 :    209.328263944736
           5 :   -146.353733961722
           6 :    90.5398949605549
           7 :   -46.4397160554645
           8 :    14.5876991004183
           9 :    7.27572215821988
          10 :   -22.4001596653700
          11 :    33.3770449095074
          12 :   -41.2745194729440
          13 :    45.6749968258946
          14 :   -45.4391790766737
          15 :    39.7186234436288
          16 :   -28.7682911251183
          17 :    14.2096285518529
          18 :    1.31021619054496
          19 :   -14.8981710674624
          20 :    24.2721545152519
          21 :   -28.3576766268101
          22 :    27.4024714318623
          23 :   -22.6311117703654
          24 :    15.6390381528270
          25 :   -7.82618301657516
          26 :   9.221289239451380E-002
          27 :    7.13088132417158
          28 :   -13.6191111798630
          29 :    19.0646076004845
          30 :   -22.9355753981670
          31 :   -33.1393263492594
          32 :   -24.3434613723775

     Forces acting on atoms (Ry/au):

     negative rho (up, down):  1.586E+00 0.000E+00
     atom    1 type  1   force =    -0.00006057   -0.00003681    0.01671267
     atom    2 type  1   force =     0.00006497   -0.00004648    0.01671223
     atom    3 type  1   force =    -0.00000559    0.00008076    0.01671363
     atom    4 type  1   force =     0.00000488    0.00000518    0.01782776
     atom    5 type  1   force =     0.00000208    0.00144458   -0.01853934
     atom    6 type  1   force =    -0.00000286   -0.00000639   -0.01102969
     atom    7 type  1   force =    -0.00125865   -0.00072214   -0.01853738
     atom    8 type  1   force =     0.00125731   -0.00071870   -0.01853520
     atom    9 type  1   force =    -0.00000142   -0.00000416   -0.00037396
     atom   10 type  1   force =    -0.00000000   -0.00068609   -0.00038939
     atom   11 type  1   force =    -0.00059130    0.00034608   -0.00038596
     atom   12 type  1   force =     0.00059120    0.00034611   -0.00038416
     atom   13 type  2   force =    -0.00000005   -0.00000195    0.00020881

     Total force =     0.001429     Total SCF correction =     0.000270
     SCF correction compared to forces is large: reduce conv_thr to get better values

     entering subroutine stress ...

     negative rho (up, down):  1.586E+00 0.000E+00
          total   stress  (Ry/bohr**3)                   (kbar)     P=  -20.70
  -0.00016843  -0.00000000  -0.00000000        -24.78     -0.00     -0.00
  -0.00000000  -0.00016842  -0.00000000         -0.00    -24.78     -0.00
  -0.00000000  -0.00000000  -0.00008539         -0.00     -0.00    -12.56

     bfgs converged in  12 scf cycles and  11 bfgs steps
     (criteria: energy <  1.0E+00, force <  1.9E-03)

     End of BFGS Geometry Optimization

     Final energy   =   -2104.5781829423 Ry
Begin final coordinates

ATOMIC_POSITIONS (crystal)
Tc1      0.166666667   0.166666667   0.408540475    0   0   0
Tc1      0.666666667   0.166666667   0.408540475    0   0   0
Tc1      0.166666667   0.666666667   0.408540475    0   0   0
Tc1      0.666666667   0.666666667   0.408540475    0   0   0
Tc1      0.833333333   0.333333333   0.500000000    0   0   0
Tc1      0.333333333   0.333333333   0.500000000    0   0   0
Tc1      0.833333333   0.833333333   0.500000000    0   0   0
Tc1      0.333333333   0.833333333   0.500000000    0   0   0
Tc1     -0.000001416  -0.000000500   0.587302918
Tc1      0.504211261  -0.008418898   0.587608712
Tc1     -0.008417301   0.504209201   0.587608295
Tc1      0.504209607   0.504208498   0.587608207
H1       0.333331130   0.333333999   0.630538985
End final coordinates

     Writing output data file calc.save

     General routines

     Parallel routines

   This run was terminated on:  17:47: 6   2May2018

   JOB DONE.
Job  /afs/slac/g/suncat/bin/suncat-tsmpirun -x LD_LIBRARY_PATH -wdir /scratch/qe798521_oNZJL pw.x -npool 4 -in pw.inp

TID   HOST_NAME   COMMAND_LINE            STATUS            TERMINATION_TIME
00000 suncat0151 pw.x -npool 4 -i  Done                     05/02/2018 17:47:06
00001 suncat0151 pw.x -npool 4 -i  Done                     05/02/2018 17:47:06
00002 suncat0151 pw.x -npool 4 -i  Done                     05/02/2018 17:47:06
00003 suncat0151 pw.x -npool 4 -i  Done                     05/02/2018 17:47:06
00004 suncat0151 pw.x -npool 4 -i  Done                     05/02/2018 17:47:06
00005 suncat0151 pw.x -npool 4 -i  Done                     05/02/2018 17:47:06
00006 suncat0151 pw.x -npool 4 -i  Done                     05/02/2018 17:47:06
00007 suncat0151 pw.x -npool 4 -i  Done                     05/02/2018 17:47:06
00008 suncat0279 pw.x -npool 4 -i  Done                     05/02/2018 17:47:06
00009 suncat0279 pw.x -npool 4 -i  Done                     05/02/2018 17:47:06
00010 suncat0279 pw.x -npool 4 -i  Done                     05/02/2018 17:47:06
00011 suncat0279 pw.x -npool 4 -i  Done                     05/02/2018 17:47:06
00012 suncat0279 pw.x -npool 4 -i  Done                     05/02/2018 17:47:06
00013 suncat0279 pw.x -npool 4 -i  Done                     05/02/2018 17:47:06
00014 suncat0279 pw.x -npool 4 -i  Done                     05/02/2018 17:47:06
00015 suncat0279 pw.x -npool 4 -i  Done                     05/02/2018 17:47:06
00016 suncat0210 pw.x -npool 4 -i  Done                     05/02/2018 17:47:06
00017 suncat0210 pw.x -npool 4 -i  Done                     05/02/2018 17:47:06
00018 suncat0210 pw.x -npool 4 -i  Done                     05/02/2018 17:47:06
00019 suncat0210 pw.x -npool 4 -i  Done                     05/02/2018 17:47:06
00020 suncat0210 pw.x -npool 4 -i  Done                     05/02/2018 17:47:06
00021 suncat0210 pw.x -npool 4 -i  Done                     05/02/2018 17:47:06
00022 suncat0210 pw.x -npool 4 -i  Done                     05/02/2018 17:47:06
00023 suncat0210 pw.x -npool 4 -i  Done                     05/02/2018 17:47:06
00024 suncat0205 pw.x -npool 4 -i  Done                     05/02/2018 17:47:06
00025 suncat0205 pw.x -npool 4 -i  Done                     05/02/2018 17:47:06
00026 suncat0205 pw.x -npool 4 -i  Done                     05/02/2018 17:47:06
00027 suncat0205 pw.x -npool 4 -i  Done                     05/02/2018 17:47:06
00028 suncat0205 pw.x -npool 4 -i  Done                     05/02/2018 17:47:06
00029 suncat0205 pw.x -npool 4 -i  Done                     05/02/2018 17:47:06
00030 suncat0205 pw.x -npool 4 -i  Done                     05/02/2018 17:47:06
00031 suncat0205 pw.x -npool 4 -i  Done                     05/02/2018 17:47:06