     Program PWSCF v.5.1rc2 (svn rev. 11289) starts on 27Jan2018 at 10:48:18

     Current dimensions of program PWSCF are:
     Max number of different atomic species (ntypx) = 10
     Max number of k-points (npk) =  40000
     Max angular momentum in pseudopotentials (lmaxx) =  3
     Presently stress not available with electric field

     IMPORTANT: XC functional enforced from input :
     Exchange-correlation      = BEEF-VDW ( 1  4 27 13 2)
     Any further DFT definition will be discarded
     Please, verify this is what you really want

     Subspace diagonalization in iterative solution of the eigenvalue problem:
     a serial algorithm will be used

     bravais-lattice index     =            0
     lattice parameter (alat)  =       1.8897  a.u.
     unit-cell volume          =    7171.5276 (a.u.)^3
     number of atoms/cell      =           13
     number of atomic types    =            2
     number of electrons       =       172.00
     number of Kohn-Sham states=           96
     kinetic-energy cutoff     =      36.7493  Ry
     charge density cutoff     =     367.4932  Ry
     convergence threshold     =      1.0E-05
     mixing beta               =       0.3000
     number of iterations used =           10  plain     mixing
     Exchange-correlation      = BEEF-VDW ( 1  4 27 13 2)
     nstep                     =           50

     celldm(1)=   1.889726  celldm(2)=   0.000000  celldm(3)=   0.000000
     celldm(4)=   0.000000  celldm(5)=   0.000000  celldm(6)=   0.000000

     crystal axes: (cart. coord. in units of alat)
               a(1) = (   6.917003   0.000000   0.000000 )
               a(2) = (   3.458501   5.990300   0.000000 )
               a(3) = (   0.000000   0.000000  25.647709 )

     reciprocal axes: (cart. coord. in units 2 pi/alat)
               b(1) = (  0.144571 -0.083468  0.000000 )
               b(2) = (  0.000000  0.166937  0.000000 )
               b(3) = (  0.000000  0.000000  0.038990 )

     PseudoPot. # 1 for Pb read from file:
     /afs/slac.stanford.edu/u/if/mamunm/psp/gbrv1.5pbe/Pb.UPF
     MD5 check sum: 3d1c1779aa92214d1e8f3a7db79003e2
     Pseudo is Ultrasoft + core correction, Zval = 14.0
     Generated by new atomic code, or converted to UPF format
     Using radial grid of  899 points,  6 beta functions with:
                l(1) =   0
                l(2) =   0
                l(3) =   1
                l(4) =   1
                l(5) =   2
                l(6) =   2
     Q(r) pseudized with  6 coefficients,  rinner =    1.000   1.000   1.000
                                                       1.000   1.000

     PseudoPot. # 2 for C  read from file:
     /afs/slac.stanford.edu/u/if/mamunm/psp/gbrv1.5pbe/C.UPF
     MD5 check sum: d1aef80898a10debaa0f26306b886e00
     Pseudo is Ultrasoft + core correction, Zval =  4.0
     Generated by new atomic code, or converted to UPF format
     Using radial grid of  721 points,  4 beta functions with:
                l(1) =   0
                l(2) =   0
                l(3) =   1
                l(4) =   1
     Q(r) pseudized with  8 coefficients,  rinner =    1.100   1.100   1.100

     vdW kernel table read from file vdW_kernel_table
     MD5 check sum: 095c7af220d748ca6e76c0b4c6cfb241

     atomic species   valence    mass     pseudopotential
        Pb1           14.00   207.20000     Pb( 1.00)
        C1             4.00    12.01100     C ( 1.00)

     No symmetry found

   Cartesian axes

     site n.     atom                  positions (alat units)
         1           Pb1 tau(   1) = (   1.7292506   0.9983833  10.0000000  )
         2           Pb1 tau(   2) = (   5.1877519   0.9983833  10.0000000  )
         3           Pb1 tau(   3) = (   3.4585013   3.9935333  10.0000000  )
         4           Pb1 tau(   4) = (   6.9170025   3.9935333  10.0000000  )
         5           Pb1 tau(   5) = (   6.9170025   1.9967666  12.8238544  )
         6           Pb1 tau(   6) = (   3.4585013   1.9967666  12.8238544  )
         7           Pb1 tau(   7) = (   8.6462531   4.9919166  12.8238544  )
         8           Pb1 tau(   8) = (   5.1877519   4.9919166  12.8238544  )
         9           Pb1 tau(   9) = (   0.0000000   0.0000000  15.6477089  )
        10           Pb1 tau(  10) = (   3.4585013   0.0000000  15.6477089  )
        11           Pb1 tau(  11) = (   1.7292506   2.9951499  15.6477089  )
        12           Pb1 tau(  12) = (   5.1877519   2.9951499  15.6477089  )
        13           C1  tau(  13) = (   3.4585013   1.9967666  17.8677089  )

     number of k points=    20  Fermi-Dirac smearing, width (Ry)=  0.0110
                       cart. coord. in units 2pi/alat
        k(    1) = (   0.0000000   0.0000000   0.0000000), wk =   0.0555556
        k(    2) = (   0.0000000   0.0278228   0.0000000), wk =   0.1111111
        k(    3) = (   0.0000000   0.0556455   0.0000000), wk =   0.1111111
        k(    4) = (   0.0000000  -0.0834683   0.0000000), wk =   0.0555556
        k(    5) = (   0.0240952  -0.0139114   0.0000000), wk =   0.1111111
        k(    6) = (   0.0240952   0.0139114   0.0000000), wk =   0.1111111
        k(    7) = (   0.0240952   0.0417341   0.0000000), wk =   0.1111111
        k(    8) = (   0.0240952  -0.0973797   0.0000000), wk =   0.1111111
        k(    9) = (   0.0240952  -0.0695569   0.0000000), wk =   0.1111111
        k(   10) = (   0.0240952  -0.0417341   0.0000000), wk =   0.1111111
        k(   11) = (   0.0481904  -0.0278228   0.0000000), wk =   0.1111111
        k(   12) = (   0.0481904   0.0000000   0.0000000), wk =   0.1111111
        k(   13) = (   0.0481904   0.0278228   0.0000000), wk =   0.1111111
        k(   14) = (   0.0481904  -0.1112910   0.0000000), wk =   0.1111111
        k(   15) = (   0.0481904  -0.0834683   0.0000000), wk =   0.1111111
        k(   16) = (   0.0481904  -0.0556455   0.0000000), wk =   0.1111111
        k(   17) = (  -0.0722856   0.0417341   0.0000000), wk =   0.0555556
        k(   18) = (  -0.0722856   0.0695569   0.0000000), wk =   0.1111111
        k(   19) = (  -0.0722856   0.0973797   0.0000000), wk =   0.1111111
        k(   20) = (  -0.0722856  -0.0417341   0.0000000), wk =   0.0555556

     Largest allocated arrays     est. size (Mb)     dimensions
     Largest temporary arrays     est. size (Mb)     dimensions

     Check: negative/imaginary core charge=   -0.000001    0.000000

     Initial potential from superposition of free atoms
     Check: negative starting charge=   -0.197895

     starting charge  171.97174, renormalised to  172.00000

     negative rho (up, down):  1.979E-01 0.000E+00

     *
     * You are using vdW-DF for exchange-correlation in this calculation.
     * Please cite the following three references that made this development
     * possible:
     *
     *   M. Dion, H. Rydberg, E. Schroder, D. C. Langreth, and
     *   B. I. Lundqvist, Phys. Rev. Lett. 92, 246401 (2004).
     *
     *   T. Thonhauser, V. R. Cooper, S. Li, A. Puzder, P. Hyldgaard, and
     *   D. C. Langreth, Phys. Rev. B 76, 125112 (2007).
     *
     *   G. Roman-Perez and J. M. Soler, Phys. Rev. Lett. 103, 096102 (2009).
     *
     *
     * If you are using vdW-DF2, please also cite:
     *
     *   K. Lee, E. D. Murray, L. Kong, B. I. Lundqvist, and
     *   D. C. Langreth, Phys. Rev. B 82, 081101(R) (2010).
     *
     *
     * If you are calculating the stress with vdW-DF, please also cite:
     *
     *   R. Sabatini, E. Kucukbenli, B. Kolb, T. Thonhauser, and
     *   S. de Gironcoli, J. Phys.: Condens. Matter 24, 424209 (2012).
     *

     Carrying out vdW-DF run using the following parameters:

     Nqs =      20    Nr_points =    1024   r_max =   100.000
     q_mesh =
               0.00001000     0.04494208     0.09755937     0.15916263
               0.23128650     0.31572767     0.41458969     0.53033537
               0.66584808     0.82450364     1.01025438     1.22772762
               1.48234092     1.78043706     2.12944203     2.53805004
               3.01644009     3.57652955     4.23227104     5.00000000

     Gradients computed in reciprocal space

     Adding external electric field

     Computed dipole along edir(3) :
        Dipole               -0.0059 Ry au,         -0.0149 Debye
        Dipole field         -0.0000 Ry au

        Potential amp.        0.0010 Ry
        Total length         47.2555 bohr

     Starting wfc are  112 randomized atomic wfcs

     Self-consistent Calculation

     iteration #  1     ecut=    36.75 Ry     beta=0.30
     Davidson diagonalization with overlap
     ethr =  1.00E-02,  avg # of iterations =  2.0

[...]

     total energy              =   -2000.88374455 Ry
     Harris-Foulkes estimate   =   -2003.42503527 Ry
     estimated scf accuracy    <       5.45803068 Ry

[...]

     End of self-consistent calculation

          k = 0.0000 0.0000 0.0000 ( 27033 PWs)   bands (ev):

   -16.8569 -16.8533 -16.8533 -16.8045 -16.8030 -16.8030 -16.7745 -16.7745
   -16.7611 -16.7509 -16.7509 -16.7502 -16.7408 -16.7176 -16.7176 -16.7175
   -16.7057 -16.7057 -16.6931 -16.6913 -16.6913 -16.6819 -16.6819 -16.6611
   -16.6481 -16.6407 -16.6407 -16.6299 -16.6299 -16.5886 -16.5715 -16.5715
   -16.5471 -16.5471 -16.5358 -16.5105 -16.5097 -16.5097 -16.4988 -16.4988
   -16.4718 -16.4718 -16.4463 -16.4461 -16.4391 -16.4391 -16.4308 -16.4268
   -16.4268 -16.4130 -16.4130 -16.4117 -16.4068 -16.3942 -16.3942 -16.3797
   -16.3797 -16.3494 -16.3494 -16.3283 -10.8177  -9.7287  -8.3540  -7.4753
    -7.2685  -7.2685  -7.1335  -6.7825  -6.7825  -6.7033  -6.1700  -6.1700
    -6.1611  -2.9689  -2.9689  -2.9368  -2.3358  -1.9561  -1.9561  -1.9258
    -1.7848  -1.7848  -1.7506   0.3149   0.6821   0.6821   1.1897   1.9315
     1.9315   1.9738   2.5417   2.5417   2.7088   3.3413   3.3607   3.3609

[...]

          k =-0.0723 0.0417 0.0000 ( 26962 PWs)   bands (ev):

[...]

     the Fermi energy is     0.7631 ev

!    total energy              =   -2003.37477487 Ry
     Harris-Foulkes estimate   =   -2003.37481995 Ry
     estimated scf accuracy    <       0.00000406 Ry

     The total energy is the sum of the following terms:

     one-electron contribution =   -9493.24133299 Ry
     hartree contribution      =    4815.66634123 Ry
     xc contribution           =    -787.07908591 Ry
     ewald contribution        =    3461.32905956 Ry
     electric field correction =       0.00058644 Ry
     smearing contrib. (-TS)   =      -0.05034320 Ry

     convergence has been achieved in  14 iterations

 BEEF-vdW xc energy contributions
           1 :   -701.515653780332
           2 :    651.564846949442
           3 :   -563.645127261476
           4 :    457.036244359518
           5 :   -351.589210201046
           6 :    261.810185611567
           7 :   -193.736509514412
           8 :    145.345332716359
           9 :   -109.820469650063
          10 :    79.9045996719252
          11 :   -51.3176104928668
          12 :    23.9062474231351
          13 :  -0.447863743719040
          14 :   -15.8401421860475
          15 :    23.5730729943760
          16 :   -24.1142091955511
          17 :    20.8625018873678
          18 :   -17.5116186574237
          19 :    16.3323616243713
[...]
     SCF correction compared to forces is large: reduce conv_thr to get better values

[...]

   This run was terminated on:  11:17: 1  27Jan2018

[...]

     Program PWSCF v.5.1rc2 (svn rev. 11289) starts on 27Jan2018 at 11:17: 7

[...]

   This run was terminated on:  11:28:44  27Jan2018

[...]

     Program PWSCF v.5.1rc2 (svn rev. 11289) starts on 27Jan2018 at 12: 6:44

[...]

   This run was terminated on:  12:43: 2  27Jan2018

[...]

     Program PWSCF v.5.1rc2 (svn rev. 11289) starts on 27Jan2018 at 12:43: 8

[...]

   This run was terminated on:  12:55:24  27Jan2018

[...]

     Program PWSCF v.5.1rc2 (svn rev. 11289) starts on 27Jan2018 at 12:55:30

     Current dimensions of program PWSCF are:
     Max number of different atomic species (ntypx) = 10
     Max number of k-points (npk) =  40000
     Max angular momentum in pseudopotentials (lmaxx) =  3
     Presently stress not available with electric field

     IMPORTANT: XC functional enforced from input :
     Exchange-correlation      = BEEF-VDW ( 1  4 27 13 2)
     Any further DFT definition will be discarded
     Please, verify this is what you really want

     Subspace diagonalization in iterative solution of the eigenvalue problem:
     a serial algorithm will be used

     bravais-lattice index     =            0
     lattice parameter (alat)  =       1.8897  a.u.
     unit-cell volume          =    7171.5276 (a.u.)^3
     number of atoms/cell      =           13
     number of atomic types    =            2
     number of electrons       =       172.00
     number of Kohn-Sham states=           96
     kinetic-energy cutoff     =      36.7493  Ry
     charge density cutoff     =     367.4932  Ry
     convergence threshold     =      1.0E-05
     mixing beta               =       0.3000
     number of iterations used =           10  plain     mixing
     Exchange-correlation      = BEEF-VDW ( 1  4 27 13 2)
     nstep                     =           50

     celldm(1)=   1.889726  celldm(2)=   0.000000  celldm(3)=   0.000000
     celldm(4)=   0.000000  celldm(5)=   0.000000  celldm(6)=   0.000000

     crystal axes: (cart. coord. in units of alat)
               a(1) = (   6.917003   0.000000   0.000000 )
               a(2) = (   3.458501   5.990300   0.000000 )
               a(3) = (   0.000000   0.000000  25.647709 )

     reciprocal axes: (cart. coord. in units 2 pi/alat)
               b(1) = (  0.144571 -0.083468  0.000000 )
               b(2) = (  0.000000  0.166937  0.000000 )
               b(3) = (  0.000000  0.000000  0.038990 )

     PseudoPot. # 1 for Pb read from file:
     /afs/slac.stanford.edu/u/if/mamunm/psp/gbrv1.5pbe/Pb.UPF
     MD5 check sum: 3d1c1779aa92214d1e8f3a7db79003e2
     Pseudo is Ultrasoft + core correction, Zval = 14.0
     Generated by new atomic code, or converted to UPF format
     Using radial grid of  899 points,  6 beta functions with:
                l(1) =   0
                l(2) =   0
                l(3) =   1
                l(4) =   1
                l(5) =   2
                l(6) =   2
     Q(r) pseudized with  6 coefficients,  rinner =    1.000   1.000   1.000
                                                       1.000   1.000

     PseudoPot. # 2 for C  read from file:
     /afs/slac.stanford.edu/u/if/mamunm/psp/gbrv1.5pbe/C.UPF
     MD5 check sum: d1aef80898a10debaa0f26306b886e00
     Pseudo is Ultrasoft + core correction, Zval =  4.0
     Generated by new atomic code, or converted to UPF format
     Using radial grid of  721 points,  4 beta functions with:
                l(1) =   0
                l(2) =   0
                l(3) =   1
                l(4) =   1
     Q(r) pseudized with  8 coefficients,  rinner =    1.100   1.100   1.100

     vdW kernel table read from file vdW_kernel_table
     MD5 check sum: 095c7af220d748ca6e76c0b4c6cfb241

     atomic species   valence    mass     pseudopotential
        Pb1           14.00   207.20000     Pb( 1.00)
        C1             4.00    12.01100     C ( 1.00)

     No symmetry found

   Cartesian axes

     site n.     atom                  positions (alat units)
         1           Pb1 tau(   1) = (   1.7292506   0.9983833  10.0000000  )
         2           Pb1 tau(   2) = (   5.1877519   0.9983833  10.0000000  )
         3           Pb1 tau(   3) = (   3.4585013   3.9935333  10.0000000  )
         4           Pb1 tau(   4) = (   6.9170025   3.9935333  10.0000000  )
         5           Pb1 tau(   5) = (   6.9170025   1.9967666  12.8238544  )
         6           Pb1 tau(   6) = (   3.4585013   1.9967666  12.8238544  )
         7           Pb1 tau(   7) = (   8.6462531   4.9919166  12.8238544  )
         8           Pb1 tau(   8) = (   5.1877519   4.9919166  12.8238544  )
         9           Pb1 tau(   9) = (   3.4585058   5.9902565  15.5888265  )
        10           Pb1 tau(  10) = (   6.9171834   5.9768420  16.0797845  )
        11           Pb1 tau(  11) = (   8.6344332   3.0020989  16.0797786  )
        12           Pb1 tau(  12) = (   5.1995791   3.0018703  16.0798390  )
        13           C1  tau(  13) = (   3.4588396   1.9966591  17.1020250  )

     number of k points=    20  Fermi-Dirac smearing, width (Ry)=  0.0110
                       cart. coord. in units 2pi/alat
        k(    1) = (   0.0000000   0.0000000   0.0000000), wk =   0.0555556
        k(    2) = (   0.0000000   0.0278228   0.0000000), wk =   0.1111111
        k(    3) = (   0.0000000   0.0556455   0.0000000), wk =   0.1111111
        k(    4) = (   0.0000000  -0.0834683   0.0000000), wk =   0.0555556
        k(    5) = (   0.0240952  -0.0139114   0.0000000), wk =   0.1111111
        k(    6) = (   0.0240952   0.0139114   0.0000000), wk =   0.1111111
        k(    7) = (   0.0240952   0.0417341   0.0000000), wk =   0.1111111
        k(    8) = (   0.0240952  -0.0973797   0.0000000), wk =   0.1111111
        k(    9) = (   0.0240952  -0.0695569   0.0000000), wk =   0.1111111
        k(   10) = (   0.0240952  -0.0417341   0.0000000), wk =   0.1111111
        k(   11) = (   0.0481904  -0.0278228   0.0000000), wk =   0.1111111
        k(   12) = (   0.0481904   0.0000000   0.0000000), wk =   0.1111111
        k(   13) = (   0.0481904   0.0278228   0.0000000), wk =   0.1111111
        k(   14) = (   0.0481904  -0.1112910   0.0000000), wk =   0.1111111
        k(   15) = (   0.0481904  -0.0834683   0.0000000), wk =   0.1111111
        k(   16) = (   0.0481904  -0.0556455   0.0000000), wk =   0.1111111
        k(   17) = (  -0.0722856   0.0417341   0.0000000), wk =   0.0555556
        k(   18) = (  -0.0722856   0.0695569   0.0000000), wk =   0.1111111
        k(   19) = (  -0.0722856   0.0973797   0.0000000), wk =   0.1111111
        k(   20) = (  -0.0722856  -0.0417341   0.0000000), wk =   0.0555556

     Largest allocated arrays     est. size (Mb)     dimensions
     Largest temporary arrays     est. size (Mb)     dimensions

     Check: negative/imaginary core charge=   -0.000001    0.000000

     Initial potential from superposition of free atoms
     Check: negative starting charge=   -0.196674

     starting charge  171.97174, renormalised to  172.00000

[...]

     *
     * You are using vdW-DF for exchange-correlation in this calculation.
     * Please cite the following three references that made this development
     * possible:
     *
     *   M. Dion, H. Rydberg, E. Schroder, D. C. Langreth, and
     *   B. I. Lundqvist, Phys. Rev. Lett. 92, 246401 (2004).
     *
     *   T. Thonhauser, V. R. Cooper, S. Li, A. Puzder, P. Hyldgaard, and
     *   D. C. Langreth, Phys. Rev. B 76, 125112 (2007).
     *
     *   G. Roman-Perez and J. M. Soler, Phys. Rev. Lett. 103, 096102 (2009).
     *
     *
     * If you are using vdW-DF2, please also cite:
     *
     *   K. Lee, E. D. Murray, L. Kong, B. I. Lundqvist, and
     *   D. C. Langreth, Phys. Rev. B 82, 081101(R) (2010).
     *
     *
     * If you are calculating the stress with vdW-DF, please also cite:
     *
     *   R. Sabatini, E. Kucukbenli, B. Kolb, T. Thonhauser, and
     *   S. de Gironcoli, J. Phys.: Condens. Matter 24, 424209 (2012).
     *

     Carrying out vdW-DF run using the following parameters:

     Nqs =      20    Nr_points =    1024   r_max =   100.000
     q_mesh =
               0.00001000     0.04494208     0.09755937     0.15916263
               0.23128650     0.31572767     0.41458969     0.53033537
               0.66584808     0.82450364     1.01025438     1.22772762
               1.48234092     1.78043706     2.12944203     2.53805004
               3.01644009     3.57652955     4.23227104     5.00000000

     Gradients computed in reciprocal space

[...]

     Starting wfc are  112 randomized atomic wfcs

     Self-consistent Calculation

[...]

     total energy              =   -2003.51768360 Ry
     Harris-Foulkes estimate   =   -2003.51769547 Ry
     estimated scf accuracy    <       0.00003636 Ry

     iteration # 11     ecut=    36.75 Ry     beta=0.30
     Davidson diagonalization with overlap
     ethr =  2.11E-08,  avg # of iterations =  2.8

[...]

     negative rho (up, down):  2.135E-01 0.000E+00

     Adding external electric field

     Computed dipole along edir(3) :
        Dipole               -0.3226 Ry au,         -0.8200 Debye
        Dipole field         -0.0006 Ry au

        Potential amp.        0.0534 Ry
        Total length         47.2555 bohr

     End of self-consistent calculation

[...]

          k = 0.0482-0.0556 0.0000 ( 26956 PWs)   bands (ev):

[...]

          k =-0.0723-0.0417 0.0000 ( 26962 PWs)   bands (ev):

   -16.4931 -16.4872 -16.4428 -16.4398 -16.4354 -16.4329 -16.4220 -16.4196
   -16.4010 -16.3989 -16.3848 -16.3816 -16.3786 -16.3620 -16.3614 -16.3511
   -16.3496 -16.3493 -16.3453 -16.3386 -16.3273 -16.3250 -16.3189 -16.3138
   -16.2988 -16.2911 -16.2838 -16.2826 -16.2780 -16.2721 -16.2653 -16.2539
   -16.2494 -16.2487 -16.2428 -16.2373 -16.2364 -16.2326 -16.2237 -16.2172
   -16.2065 -16.1900 -16.1895 -16.1857 -16.1786 -16.1691 -16.1563 -16.1407
   -16.1388 -16.1307 -16.1247 -16.1240 -16.0942 -16.0746 -16.0633 -16.0579
   -16.0380 -16.0268 -16.0060 -15.9256 -10.1510  -9.2805  -9.1104  -8.2873
    -7.6005  -7.2840  -7.2734  -7.1780  -6.7008  -6.6778  -5.9533  -5.9191
    -4.5327  -1.6431  -1.0126  -0.9968  -0.9270  -0.6922  -0.5829  -0.5350
    -0.2444  -0.0134   0.1337   0.5047   0.8900   1.0905   1.1038   1.6208
     1.7160   1.8557   1.9795   2.2287   2.4056   2.4301   2.4744   2.9110

     the Fermi energy is     1.1000 ev

!    total energy              =   -2003.51768044 Ry
     Harris-Foulkes estimate   =   -2003.51768665 Ry
     estimated scf accuracy    <       0.00000073 Ry

     The total energy is the sum of the following terms:

     one-electron contribution =   -9202.07027413 Ry
     hartree contribution      =    4671.88256378 Ry
     xc contribution           =    -787.36372898 Ry
     ewald contribution        =    3314.07642641 Ry
     electric field correction =       0.00018238 Ry
     smearing contrib. (-TS)   =      -0.04284990 Ry

     convergence has been achieved in  11 iterations

 BEEF-vdW xc energy contributions
           1 :   -701.793284098659
           2 :    651.857254387939
           3 :   -563.940749634085
           4 :    457.320974579329
           5 :   -351.860662347950
           6 :    262.049078898452
           7 :   -193.880789665604
           8 :    145.307763908485
           9 :   -109.547288287116
          10 :    79.4334220409834
          11 :   -50.7873565253071
          12 :    23.5033613245696
          13 :  -0.315622821704665
          14 :   -15.6780757570743
          15 :    23.2306347252897
          16 :   -23.7859268549428
          17 :    20.7155094324534
          18 :   -17.5911197678258
          19 :    16.5411292024448
          20 :   -17.5597651200380
          21 :    19.0251298495145
          22 :   -19.0054092829027
          23 :    16.5465940968438
          24 :   -12.2327991970003
          25 :    7.78473950363014
          26 :   -5.02181829481401
          27 :    4.83271844771184
          28 :   -6.73524021519506
          29 :    9.22709713081963
          30 :   -10.6760318213635
          31 :   -56.2309334585511
          32 :   -41.2274635358087

     Forces acting on atoms (Ry/au):

     negative rho (up, down):  2.135E-01 0.000E+00
     atom    1 type  1   force =     0.00457958    0.00264274   -0.00231439
     atom    2 type  1   force =    -0.00458199    0.00264459   -0.00231821
     atom    3 type  1   force =    -0.00000690   -0.00528993   -0.00231581
     atom    4 type  1   force =    -0.00000175    0.00000275   -0.00539942
     atom    5 type  1   force =     0.00001104   -0.00092966    0.00424437
     atom    6 type  1   force =    -0.00000035    0.00000401   -0.00204633
     atom    7 type  1   force =     0.00079383    0.00045570    0.00424298
     atom    8 type  1   force =    -0.00078868    0.00045733    0.00424151
     atom    9 type  1   force =     0.00001680    0.00001251   -0.00020977
     atom   10 type  1   force =    -0.00003482    0.00013093    0.00026741
     atom   11 type  1   force =     0.00025094   -0.00015659    0.00033643
     atom   12 type  1   force =    -0.00011679   -0.00004246    0.00026447
     atom   13 type  2   force =    -0.00012091    0.00006806    0.00100676

     Total force =     0.013833     Total SCF correction =     0.003649
     SCF correction compared to forces is large: reduce conv_thr to get better values

     entering subroutine stress ...

     negative rho (up, down):  2.135E-01 0.000E+00
          total   stress  (Ry/bohr**3)                   (kbar)     P=    9.49
   0.00009074   0.00000003  -0.00000003         13.35      0.00     -0.01
   0.00000003   0.00009078   0.00000002          0.00     13.35      0.00
  -0.00000003   0.00000002   0.00001196         -0.01      0.00      1.76

 !ASE

     Writing output data file calc.save

     General routines

     Parallel routines

   This run was terminated on:  13: 7:33  27Jan2018

   JOB DONE.
Job  /afs/slac/g/suncat/bin/suncat-tsmpirun -x LD_LIBRARY_PATH -wdir /scratch/qe498627_q45wo pw.x -in pw.inp

TID   HOST_NAME   COMMAND_LINE            STATUS            TERMINATION_TIME
00000 suncat0085 pw.x -in pw.inp   Done                     01/27/2018 13:07:33
00001 suncat0085 pw.x -in pw.inp   Done                     01/27/2018 13:07:33
00002 suncat0085 pw.x -in pw.inp   Done                     01/27/2018 13:07:33
00003 suncat0085 pw.x -in pw.inp   Done                     01/27/2018 13:07:33
00004 suncat0085 pw.x -in pw.inp   Done                     01/27/2018 13:07:33
00005 suncat0085 pw.x -in pw.inp   Done                     01/27/2018 13:07:33
00006 suncat0085 pw.x -in pw.inp   Done                     01/27/2018 13:07:33
00007 suncat0085 pw.x -in pw.inp   Done                     01/27/2018 13:07:33
00008 suncat0075 pw.x -in pw.inp   Done                     01/27/2018 13:07:33
00009 suncat0075 pw.x -in pw.inp   Done                     01/27/2018 13:07:33
00010 suncat0075 pw.x -in pw.inp   Done                     01/27/2018 13:07:33
00011 suncat0075 pw.x -in pw.inp   Done                     01/27/2018 13:07:33
00012 suncat0075 pw.x -in pw.inp   Done                     01/27/2018 13:07:33
00013 suncat0075 pw.x -in pw.inp   Done                     01/27/2018 13:07:33
00014 suncat0075 pw.x -in pw.inp   Done                     01/27/2018 13:07:33
00015 suncat0075 pw.x -in pw.inp   Done                     01/27/2018 13:07:33
00016 suncat0129 pw.x -in pw.inp   Done                     01/27/2018 13:07:33
00017 suncat0129 pw.x -in pw.inp   Done                     01/27/2018 13:07:33
00018 suncat0129 pw.x -in pw.inp   Done                     01/27/2018 13:07:33
00019 suncat0129 pw.x -in pw.inp   Done                     01/27/2018 13:07:33
00020 suncat0129 pw.x -in pw.inp   Done                     01/27/2018 13:07:33
00021 suncat0129 pw.x -in pw.inp   Done                     01/27/2018 13:07:33
00022 suncat0129 pw.x -in pw.inp   Done                     01/27/2018 13:07:33
00023 suncat0129 pw.x -in pw.inp   Done                     01/27/2018 13:07:33
00024 suncat0255 pw.x -in pw.inp   Done                     01/27/2018 13:07:33
00025 suncat0255 pw.x -in pw.inp   Done                     01/27/2018 13:07:33
00026 suncat0255 pw.x -in pw.inp   Done                     01/27/2018 13:07:33
00027 suncat0255 pw.x -in pw.inp   Done                     01/27/2018 13:07:33
00028 suncat0255 pw.x -in pw.inp   Done                     01/27/2018 13:07:33
00029 suncat0255 pw.x -in pw.inp   Done                     01/27/2018 13:07:33
00030 suncat0255 pw.x -in pw.inp   Done                     01/27/2018 13:07:33
00031 suncat0255 pw.x -in pw.inp   Done                     01/27/2018 13:07:33