     Program PWSCF v.5.1rc2 (svn rev. 11289) starts on 16Jan2018 at 17:28: 3

     Current dimensions of program PWSCF are:
     Max number of different atomic species (ntypx) = 10
     Max number of k-points (npk) =  40000
     Max angular momentum in pseudopotentials (lmaxx) =  3
     Presently stress not available with electric field

     IMPORTANT: XC functional enforced from input :
     Exchange-correlation      = BEEF-VDW ( 1  4 27 13 2)
     Any further DFT definition will be discarded
     Please, verify this is what you really want

     Subspace diagonalization in iterative solution of the eigenvalue problem:
     a serial algorithm will be used

     bravais-lattice index     =            0
     lattice parameter (alat)  =       1.8897  a.u.
     unit-cell volume          =    4204.8134 (a.u.)^3
     number of atoms/cell      =           13
     number of atomic types    =            2
     number of electrons       =       181.00
     number of Kohn-Sham states=          100
     kinetic-energy cutoff     =      36.7493  Ry
     charge density cutoff     =     367.4932  Ry
     convergence threshold     =      1.0E-05
     mixing beta               =       0.3000
     number of iterations used =           10  plain     mixing
     Exchange-correlation      = BEEF-VDW ( 1  4 27 13 2)
     nstep                     =           50

     celldm(1)=   1.889726  celldm(2)=   0.000000  celldm(3)=   0.000000
     celldm(4)=   0.000000  celldm(5)=   0.000000  celldm(6)=   0.000000

     crystal axes: (cart. coord. in units of alat)
               a(1) = (   5.426750   0.000000   0.000000 )
               a(2) = (   2.713375   4.699703   0.000000 )
               a(3) = (   0.000000   0.000000  24.430923 )

     reciprocal axes: (cart. coord. in units 2 pi/alat)
               b(1) = (  0.184272 -0.106390  0.000000 )
               b(2) = (  0.000000  0.212779  0.000000 )
               b(3) = (  0.000000  0.000000  0.040932 )

     PseudoPot. # 1 for Rh read from file:
     /afs/slac.stanford.edu/u/if/mamunm/psp/gbrv1.5pbe/Rh.UPF
     MD5 check sum: 761627e959a2e3a1f56b0b5fe687810e
     Pseudo is Ultrasoft + core correction, Zval = 15.0
     Generated by new atomic code, or converted to UPF format
     Using radial grid of  969 points,  7 beta functions with:
                l(1) =   0
                l(2) =   0
                l(3) =   1
                l(4) =   1
                l(5) =   2
                l(6) =   2
                l(7) =   2
     Q(r) pseudized with  8 coefficients,  rinner =    1.200   1.200   1.200
                                                       1.200   1.200

     PseudoPot. # 2 for H  read from file:
     /afs/slac.stanford.edu/u/if/mamunm/psp/gbrv1.5pbe/H.UPF
     MD5 check sum: 761ae9a214b05c3daf00ab9f6b793d6f
     Pseudo is Ultrasoft, Zval =  1.0
     Generated by new atomic code, or converted to UPF format
     Using radial grid of  615 points,  2 beta functions with:
                l(1) =   0
                l(2) =   0
     Q(r) pseudized with  8 coefficients,  rinner =    0.700

     vdW kernel table read from file vdW_kernel_table
     MD5 check sum: 095c7af220d748ca6e76c0b4c6cfb241

     atomic species   valence    mass     pseudopotential
        Rh1           15.00   102.90550     Rh( 1.00)
        H1             1.00     1.00800     H ( 1.00)

     No symmetry found

   Cartesian axes

     site n.     atom                  positions (alat units)
         1           Rh1 tau(   1) = (   1.3566875   0.7832839  10.0000000  )
         2           Rh1 tau(   2) = (   4.0700625   0.7832839  10.0000000  )
         3           Rh1 tau(   3) = (   2.7133750   3.1331356  10.0000000  )
         4           Rh1 tau(   4) = (   5.4267500   3.1331356  10.0000000  )
         5           Rh1 tau(   5) = (   5.4267500   1.5665678  12.2154614  )
         6           Rh1 tau(   6) = (   2.7133750   1.5665678  12.2154614  )
         7           Rh1 tau(   7) = (   6.7834375   3.9164194  12.2154614  )
         8           Rh1 tau(   8) = (   4.0700625   3.9164194  12.2154614  )
         9           Rh1 tau(   9) = (   0.0000000   0.0000000  14.4309228  )
        10           Rh1 tau(  10) = (   2.7133750   0.0000000  14.4309228  )
        11           Rh1 tau(  11) = (   1.3566875   2.3498517  14.4309228  )
        12           Rh1 tau(  12) = (   4.0700625   2.3498517  14.4309228  )
        13           H1  tau(  13) = (   2.7133750   1.5665678  16.1609228  )

     number of k points=    20  Fermi-Dirac smearing, width (Ry)=  0.0110
                       cart. coord. in units 2pi/alat
        k(    1) = (   0.0000000   0.0000000   0.0000000), wk =   0.0555556
        k(    2) = (   0.0000000   0.0354632   0.0000000), wk =   0.1111111
        k(    3) = (   0.0000000   0.0709265   0.0000000), wk =   0.1111111
        k(    4) = (   0.0000000  -0.1063897   0.0000000), wk =   0.0555556
        k(    5) = (   0.0307121  -0.0177316   0.0000000), wk =   0.1111111
        k(    6) = (   0.0307121   0.0177316   0.0000000), wk =   0.1111111
        k(    7) = (   0.0307121   0.0531948   0.0000000), wk =   0.1111111
        k(    8) = (   0.0307121  -0.1241213   0.0000000), wk =   0.1111111
        k(    9) = (   0.0307121  -0.0886581   0.0000000), wk =   0.1111111
        k(   10) = (   0.0307121  -0.0531948   0.0000000), wk =   0.1111111
        k(   11) = (   0.0614241  -0.0354632   0.0000000), wk =   0.1111111
        k(   12) = (   0.0614241   0.0000000   0.0000000), wk =   0.1111111
        k(   13) = (   0.0614241   0.0354632   0.0000000), wk =   0.1111111
        k(   14) = (   0.0614241  -0.1418529   0.0000000), wk =   0.1111111
        k(   15) = (   0.0614241  -0.1063897   0.0000000), wk =   0.1111111
        k(   16) = (   0.0614241  -0.0709265   0.0000000), wk =   0.1111111
        k(   17) = (  -0.0921362   0.0531948   0.0000000), wk =   0.0555556
        k(   18) = (  -0.0921362   0.0886581   0.0000000), wk =   0.1111111
        k(   19) = (  -0.0921362   0.1241213   0.0000000), wk =   0.1111111
        k(   20) = (  -0.0921362  -0.0531948   0.0000000), wk =   0.0555556

     Largest allocated arrays     est. size (Mb)     dimensions
     Largest temporary arrays     est. size (Mb)     dimensions

     Initial potential from superposition of free atoms
     Check: negative starting charge=   -0.652779

     starting charge  174.99881, renormalised to  181.00000

     negative rho (up, down):  6.752E-01 0.000E+00

     *
     * You are using vdW-DF for exchange-correlation in this calculation.
     * Please cite the following three references that made this development
     * possible:
     *
     *   M. Dion, H. Rydberg, E. Schroder, D. C. Langreth, and
     *   B. I. Lundqvist, Phys. Rev. Lett. 92, 246401 (2004).
     *
     *   T. Thonhauser, V. R. Cooper, S. Li, A. Puzder, P. Hyldgaard, and
     *   D. C. Langreth, Phys. Rev. B 76, 125112 (2007).
     *
     *   G. Roman-Perez and J. M. Soler, Phys. Rev. Lett. 103, 096102 (2009).
     *
     *
     * If you are using vdW-DF2, please also cite:
     *
     *   K. Lee, E. D. Murray, L. Kong, B. I. Lundqvist, and
     *   D. C. Langreth, Phys. Rev. B 82, 081101(R) (2010).
     *
     *
     * If you are calculating the stress with vdW-DF, please also cite:
     *
     *   R. Sabatini, E. Kucukbenli, B. Kolb, T. Thonhauser, and
     *   S. de Gironcoli, J. Phys.: Condens. Matter 24, 424209 (2012).
     *

     Carrying out vdW-DF run using the following parameters:

     Nqs =      20    Nr_points =    1024   r_max =   100.000
     q_mesh =
               0.00001000     0.04494208     0.09755937     0.15916263
               0.23128650     0.31572767     0.41458969     0.53033537
               0.66584808     0.82450364     1.01025438     1.22772762
               1.48234092     1.78043706     2.12944203     2.53805004
               3.01644009     3.57652955     4.23227104     5.00000000

     Gradients computed in reciprocal space

     Adding external electric field

     Computed dipole along edir(3) :
        Dipole               -0.2556 Ry au,         -0.6497 Debye
        Dipole field         -0.0008 Ry au

        Potential amp.        0.0688 Ry
        Total length         45.0136 bohr

     Starting wfc are  145 randomized atomic wfcs

     Self-consistent Calculation

     iteration #  1     ecut=    36.75 Ry     beta=0.30
     Davidson diagonalization with overlap
     ethr =  1.00E-02,  avg # of iterations =  2.0

[...]

     total energy              =   -2064.72173097 Ry
     Harris-Foulkes estimate   =   -2069.08367245 Ry
     estimated scf accuracy    <       9.75377060 Ry

[...]

     End of self-consistent calculation

          k = 0.0000 0.0000 0.0000 ( 15785 PWs)   bands (ev):

   -45.4813 -45.4715 -45.4715 -45.3481 -45.2952 -45.2693 -45.2690 -45.1025
   -45.0948 -45.0948 -45.0781 -45.0776 -45.0638 -45.0063 -44.9877 -44.9874
   -44.9597 -44.9597 -44.7375 -44.7366 -44.7330 -44.7166 -44.6779 -44.6777
   -44.6734 -44.6615 -44.6606 -44.6241 -44.6032 -44.6012 -44.6012 -44.5887
   -44.5884 -44.5800 -44.5579 -44.5579  -5.1622  -3.9598  -3.8735  -3.8734
    -3.8491  -3.7582  -3.5955  -3.5811  -3.5811  -3.3626  -3.3515  -3.3513
    -3.0907  -3.0415  -3.0413  -2.2288  -1.9146  -1.9143  -1.5728  -1.4675
    -1.4675  -1.2910  -1.1804  -1.1804  -1.0581  -0.8639  -0.8639  -0.7779
    -0.7778  -0.7619  -0.6369  -0.6369  -0.1426  -0.0033  -0.0028   0.0443
     0.6709   0.6712   0.6773   0.7168   0.7169   0.8680   0.8681   0.9879
     1.2903   1.2903   1.7947   1.7949   1.8135   1.8164   1.8168   1.8177
     1.9426   1.9427   2.1709   2.1850   2.1850   2.1931   2.5077   2.5208
     2.5213   2.5797   2.5834   2.5836

[...]

          k =-0.0921 0.0532 0.0000 ( 15852 PWs)   bands (ev):

[...]

     the Fermi energy is     1.5793 ev

!    total energy              =   -2067.52857568 Ry
     Harris-Foulkes estimate   =   -2067.52858539 Ry
     estimated scf accuracy    <       0.00000959 Ry

     The total energy is the sum of the following terms:

     one-electron contribution =  -19130.85272805 Ry
     hartree contribution      =    9605.96771817 Ry
     xc contribution           =    -372.72586319 Ry
     ewald contribution        =    7830.20778949 Ry
     electric field correction =       0.00002960 Ry
     smearing contrib. (-TS)   =      -0.12552170 Ry

     convergence has been achieved in  17 iterations

 BEEF-vdW xc energy contributions
           1 :   -324.640890102873
           2 :    298.167566391024
           3 :   -252.367375845987
           4 :    198.629811119383
           5 :   -148.457097092213
           6 :    109.877878856124
           7 :   -85.5990035570541
           8 :    73.3277248694320
           9 :   -67.8154053404946
          10 :    63.5640182183315
          11 :   -57.0193821244534
          12 :    47.4647619539156
          13 :   -36.5088285841755
          14 :    26.6803828482511
          15 :   -19.9307412759429
          16 :    16.7294945624766
          17 :   -16.0489814684348
          18 :    16.0804123025836
          19 :   -15.2164182403279
          20 :    12.7850692659883
          21 :   -9.21017054325500
[...]

     Program PWSCF v.5.1rc2 (svn rev. 11289) starts on 16Jan2018 at 17:39:12

[...]

   This run was terminated on:  17:50:22  16Jan2018

[...]

     Total force =     0.138383     Total SCF correction =     0.002199

[...]

   This run was terminated on:  18: 3: 8  16Jan2018

[...]

     Program PWSCF v.5.1rc2 (svn rev. 11289) starts on 16Jan2018 at 18: 3:14

[...]

   This run was terminated on:  18:16: 6  16Jan2018

[...]

     Total force =     0.068544     Total SCF correction =     0.002919

[...]

     Program PWSCF v.5.1rc2 (svn rev. 11289) starts on 16Jan2018 at 18:41:23

[...]

   This run was terminated on:  18:52:55  16Jan2018

[...]

     Program PWSCF v.5.1rc2 (svn rev. 11289) starts on 16Jan2018 at 18:53: 0

     Current dimensions of program PWSCF are:
     Max number of different atomic species (ntypx) = 10
     Max number of k-points (npk) =  40000
     Max angular momentum in pseudopotentials (lmaxx) =  3
     Presently stress not available with electric field

     IMPORTANT: XC functional enforced from input :
     Exchange-correlation      = BEEF-VDW ( 1  4 27 13 2)
     Any further DFT definition will be discarded
     Please, verify this is what you really want

     Subspace diagonalization in iterative solution of the eigenvalue problem:
     a serial algorithm will be used

     bravais-lattice index     =            0
     lattice parameter (alat)  =       1.8897  a.u.
     unit-cell volume          =    4204.8134 (a.u.)^3
     number of atoms/cell      =           13
     number of atomic types    =            2
     number of electrons       =       181.00
     number of Kohn-Sham states=          100
     kinetic-energy cutoff     =      36.7493  Ry
     charge density cutoff     =     367.4932  Ry
     convergence threshold     =      1.0E-05
     mixing beta               =       0.3000
     number of iterations used =           10  plain     mixing
     Exchange-correlation      = BEEF-VDW ( 1  4 27 13 2)
     nstep                     =           50

     celldm(1)=   1.889726  celldm(2)=   0.000000  celldm(3)=   0.000000
     celldm(4)=   0.000000  celldm(5)=   0.000000  celldm(6)=   0.000000

     crystal axes: (cart. coord. in units of alat)
               a(1) = (   5.426750   0.000000   0.000000 )
               a(2) = (   2.713375   4.699703   0.000000 )
               a(3) = (   0.000000   0.000000  24.430923 )

     reciprocal axes: (cart. coord. in units 2 pi/alat)
               b(1) = (  0.184272 -0.106390  0.000000 )
               b(2) = (  0.000000  0.212779  0.000000 )
               b(3) = (  0.000000  0.000000  0.040932 )

     PseudoPot. # 1 for Rh read from file:
     /afs/slac.stanford.edu/u/if/mamunm/psp/gbrv1.5pbe/Rh.UPF
     MD5 check sum: 761627e959a2e3a1f56b0b5fe687810e
     Pseudo is Ultrasoft + core correction, Zval = 15.0
     Generated by new atomic code, or converted to UPF format
     Using radial grid of  969 points,  7 beta functions with:
                l(1) =   0
                l(2) =   0
                l(3) =   1
                l(4) =   1
                l(5) =   2
                l(6) =   2
                l(7) =   2
     Q(r) pseudized with  8 coefficients,  rinner =    1.200   1.200   1.200
                                                       1.200   1.200

     PseudoPot. # 2 for H  read from file:
     /afs/slac.stanford.edu/u/if/mamunm/psp/gbrv1.5pbe/H.UPF
     MD5 check sum: 761ae9a214b05c3daf00ab9f6b793d6f
     Pseudo is Ultrasoft, Zval =  1.0
     Generated by new atomic code, or converted to UPF format
     Using radial grid of  615 points,  2 beta functions with:
                l(1) =   0
                l(2) =   0
     Q(r) pseudized with  8 coefficients,  rinner =    0.700

     vdW kernel table read from file vdW_kernel_table
     MD5 check sum: 095c7af220d748ca6e76c0b4c6cfb241

     atomic species   valence    mass     pseudopotential
        Rh1           15.00   102.90550     Rh( 1.00)
        H1             1.00     1.00800     H ( 1.00)

     No symmetry found

   Cartesian axes

     site n.     atom                  positions (alat units)
         1           Rh1 tau(   1) = (   1.3566875   0.7832839  10.0000000  )
         2           Rh1 tau(   2) = (   4.0700625   0.7832839  10.0000000  )
         3           Rh1 tau(   3) = (   2.7133750   3.1331356  10.0000000  )
         4           Rh1 tau(   4) = (   5.4267500   3.1331356  10.0000000  )
         5           Rh1 tau(   5) = (   5.4267500   1.5665678  12.2154614  )
         6           Rh1 tau(   6) = (   2.7133750   1.5665678  12.2154614  )
         7           Rh1 tau(   7) = (   6.7834375   3.9164194  12.2154614  )
         8           Rh1 tau(   8) = (   4.0700625   3.9164194  12.2154614  )
         9           Rh1 tau(   9) = (   5.4267331   0.0000027  14.3851766  )
        10           Rh1 tau(  10) = (   5.4267845   4.6775209  14.4301450  )
        11           Rh1 tau(  11) = (   6.7641744   2.3610388  14.4301566  )
        12           Rh1 tau(  12) = (   4.0893200   2.3609924  14.4301576  )
        13           H1  tau(  13) = (   2.7133860   1.5665726  15.3914457  )

     number of k points=    20  Fermi-Dirac smearing, width (Ry)=  0.0110
                       cart. coord. in units 2pi/alat
        k(    1) = (   0.0000000   0.0000000   0.0000000), wk =   0.0555556
        k(    2) = (   0.0000000   0.0354632   0.0000000), wk =   0.1111111
        k(    3) = (   0.0000000   0.0709265   0.0000000), wk =   0.1111111
        k(    4) = (   0.0000000  -0.1063897   0.0000000), wk =   0.0555556
        k(    5) = (   0.0307121  -0.0177316   0.0000000), wk =   0.1111111
        k(    6) = (   0.0307121   0.0177316   0.0000000), wk =   0.1111111
        k(    7) = (   0.0307121   0.0531948   0.0000000), wk =   0.1111111
        k(    8) = (   0.0307121  -0.1241213   0.0000000), wk =   0.1111111
        k(    9) = (   0.0307121  -0.0886581   0.0000000), wk =   0.1111111
        k(   10) = (   0.0307121  -0.0531948   0.0000000), wk =   0.1111111
        k(   11) = (   0.0614241  -0.0354632   0.0000000), wk =   0.1111111
        k(   12) = (   0.0614241   0.0000000   0.0000000), wk =   0.1111111
        k(   13) = (   0.0614241   0.0354632   0.0000000), wk =   0.1111111
        k(   14) = (   0.0614241  -0.1418529   0.0000000), wk =   0.1111111
        k(   15) = (   0.0614241  -0.1063897   0.0000000), wk =   0.1111111
        k(   16) = (   0.0614241  -0.0709265   0.0000000), wk =   0.1111111
        k(   17) = (  -0.0921362   0.0531948   0.0000000), wk =   0.0555556
        k(   18) = (  -0.0921362   0.0886581   0.0000000), wk =   0.1111111
        k(   19) = (  -0.0921362   0.1241213   0.0000000), wk =   0.1111111
        k(   20) = (  -0.0921362  -0.0531948   0.0000000), wk =   0.0555556

     Largest allocated arrays     est. size (Mb)     dimensions
     Largest temporary arrays     est. size (Mb)     dimensions

     Initial potential from superposition of free atoms
     Check: negative starting charge=   -0.657692

     starting charge  174.99881, renormalised to  181.00000

[...]

     *
     * You are using vdW-DF for exchange-correlation in this calculation.
     * Please cite the following three references that made this development
     * possible:
     *
     *   M. Dion, H. Rydberg, E. Schroder, D. C. Langreth, and
     *   B. I. Lundqvist, Phys. Rev. Lett. 92, 246401 (2004).
     *
     *   T. Thonhauser, V. R. Cooper, S. Li, A. Puzder, P. Hyldgaard, and
     *   D. C. Langreth, Phys. Rev. B 76, 125112 (2007).
     *
     *   G. Roman-Perez and J. M. Soler, Phys. Rev. Lett. 103, 096102 (2009).
     *
     *
     * If you are using vdW-DF2, please also cite:
     *
     *   K. Lee, E. D. Murray, L. Kong, B. I. Lundqvist, and
     *   D. C. Langreth, Phys. Rev. B 82, 081101(R) (2010).
     *
     *
     * If you are calculating the stress with vdW-DF, please also cite:
     *
     *   R. Sabatini, E. Kucukbenli, B. Kolb, T. Thonhauser, and
     *   S. de Gironcoli, J. Phys.: Condens. Matter 24, 424209 (2012).
     *

     Carrying out vdW-DF run using the following parameters:

     Nqs =      20    Nr_points =    1024   r_max =   100.000
     q_mesh =
               0.00001000     0.04494208     0.09755937     0.15916263
               0.23128650     0.31572767     0.41458969     0.53033537
               0.66584808     0.82450364     1.01025438     1.22772762
               1.48234092     1.78043706     2.12944203     2.53805004
               3.01644009     3.57652955     4.23227104     5.00000000

     Gradients computed in reciprocal space

[...]

     Starting wfc are  145 randomized atomic wfcs

     Self-consistent Calculation

[...]

     total energy              =   -2067.59175782 Ry
     Harris-Foulkes estimate   =   -2067.59176108 Ry
     estimated scf accuracy    <       0.00004633 Ry

     iteration # 18     ecut=    36.75 Ry     beta=0.30
     Davidson diagonalization with overlap
     ethr =  2.56E-08,  avg # of iterations =  1.4

[...]

     negative rho (up, down):  6.917E-01 0.000E+00

     Adding external electric field

     Computed dipole along edir(3) :
        Dipole               -0.0101 Ry au,         -0.0257 Debye
        Dipole field         -0.0000 Ry au

        Potential amp.        0.0027 Ry
        Total length         45.0136 bohr

     End of self-consistent calculation

[...]

          k = 0.0614-0.0709 0.0000 ( 15838 PWs)   bands (ev):

[...]

          k =-0.0921-0.0532 0.0000 ( 15852 PWs)   bands (ev):

   -45.2811 -45.2628 -45.1936 -45.1850 -45.1553 -45.1523 -45.1248 -45.1123
   -45.0848 -45.0775 -44.9648 -44.9206 -44.9070 -44.8941 -44.8441 -44.8277
   -44.8210 -44.7740 -44.7588 -44.7266 -44.7025 -44.7006 -44.6707 -44.6615
   -44.6367 -44.5807 -44.5729 -44.5700 -44.5528 -44.5425 -44.5221 -44.5091
   -44.5080 -44.5048 -44.4976 -44.4808  -4.6065  -3.5745  -3.4849  -2.9889
    -2.9479  -2.9074  -2.8370  -2.7046  -2.6923  -2.5453  -2.5048  -2.4340
    -2.4224  -2.1657  -2.1357  -2.0755  -1.9093  -1.6924  -1.6490  -1.5588
    -1.5548  -1.5079  -1.4826  -1.1353  -1.0896  -0.7962  -0.7477  -0.7201
    -0.6485  -0.5817  -0.5441  -0.4063  -0.3842  -0.3668  -0.3407  -0.2952
    -0.2602  -0.2600  -0.2384  -0.2064   0.2120   0.2373   0.3698   0.3995
     0.4560   0.4789   0.7195   0.7223   0.7654   0.8401   0.9366   0.9481
     1.2159   1.2892   1.3343   1.3738   1.4974   1.6793   1.9182   1.9224
     2.0718   2.1125   2.3484   2.3708

     the Fermi energy is     1.6852 ev

!    total energy              =   -2067.59175746 Ry
     Harris-Foulkes estimate   =   -2067.59176285 Ry
     estimated scf accuracy    <       0.00000640 Ry

     The total energy is the sum of the following terms:

     one-electron contribution =  -19212.99461559 Ry
     hartree contribution      =    9647.57817867 Ry
     xc contribution           =    -372.91595576 Ry
     ewald contribution        =    7870.86534612 Ry
     electric field correction =       0.00000031 Ry
     smearing contrib. (-TS)   =      -0.12471120 Ry

     convergence has been achieved in  18 iterations

 BEEF-vdW xc energy contributions
           1 :   -324.838853238994
           2 :    298.433980796508
           3 :   -252.709420841701
           4 :    198.983571265396
           5 :   -148.723808795891
           6 :    109.979284566392
           7 :   -85.5228490921371
           8 :    73.1369680596516
           9 :   -67.6158192052736
          10 :    63.4491945075301
          11 :   -57.0250149390436
          12 :    47.5574639272072
          13 :   -36.6136024081970
          14 :    26.7280159421533
          15 :   -19.8961308910783
          16 :    16.6414575977963
          17 :   -15.9695412617534
          18 :    16.0655884820468
          19 :   -15.2828563986575
          20 :    12.9039767424308
          21 :   -9.32744943894909
          22 :    5.66655055765102
          23 :   -3.05236681183624
          24 :    2.03254451013561
          25 :   -2.35009829344682
          26 :    3.16180393183708
          27 :   -3.53417294049530
          28 :    2.93529352454414
          29 :   -1.46690768155679
          30 :  -0.260606521587420
          31 :   -32.0973442990600
          32 :   -24.0937451882977

     Forces acting on atoms (Ry/au):

     negative rho (up, down):  6.917E-01 0.000E+00
     atom    1 type  1   force =     0.00042509    0.00027696    0.00719121
     atom    2 type  1   force =    -0.00043135    0.00027671    0.00719722
     atom    3 type  1   force =     0.00000388   -0.00052680    0.00716555
     atom    4 type  1   force =    -0.00000446   -0.00002123    0.00636519
     atom    5 type  1   force =     0.00000828    0.00143339   -0.00759681
     atom    6 type  1   force =    -0.00000424   -0.00002164   -0.00523551
     atom    7 type  1   force =    -0.00125405   -0.00071293   -0.00761709
     atom    8 type  1   force =     0.00125743   -0.00069819   -0.00757539
     atom    9 type  1   force =     0.00001799    0.00005344   -0.00129284
     atom   10 type  1   force =    -0.00002597   -0.00007426    0.00049097
     atom   11 type  1   force =    -0.00009040   -0.00000161    0.00043093
     atom   12 type  1   force =     0.00010341    0.00001656    0.00042241
     atom   13 type  2   force =    -0.00000561   -0.00000040    0.00005417

     Total force =     0.020130     Total SCF correction =     0.019813
     SCF correction compared to forces is large: reduce conv_thr to get better values

     entering subroutine stress ...

     negative rho (up, down):  6.917E-01 0.000E+00
          total   stress  (Ry/bohr**3)                   (kbar)     P=  -29.62
  -0.00020607   0.00000001  -0.00000001        -30.31      0.00     -0.00
   0.00000001  -0.00020604  -0.00000000          0.00    -30.31     -0.00
  -0.00000001  -0.00000000  -0.00019204         -0.00     -0.00    -28.25

 !ASE

     Writing output data file calc.save

     General routines

     Parallel routines

   This run was terminated on:  19: 4:32  16Jan2018

   JOB DONE.
Job  /afs/slac/g/suncat/bin/suncat-tsmpirun -x LD_LIBRARY_PATH -wdir /scratch/qe842475_fjjHi pw.x -in pw.inp

TID   HOST_NAME   COMMAND_LINE            STATUS            TERMINATION_TIME
00000 suncat0273 pw.x -in pw.inp   Done                     01/16/2018 19:04:32
00001 suncat0273 pw.x -in pw.inp   Done                     01/16/2018 19:04:32
00002 suncat0273 pw.x -in pw.inp   Done                     01/16/2018 19:04:32
00003 suncat0273 pw.x -in pw.inp   Done                     01/16/2018 19:04:32
00004 suncat0273 pw.x -in pw.inp   Done                     01/16/2018 19:04:32
00005 suncat0273 pw.x -in pw.inp   Done                     01/16/2018 19:04:32
00006 suncat0273 pw.x -in pw.inp   Done                     01/16/2018 19:04:32
00007 suncat0273 pw.x -in pw.inp   Done                     01/16/2018 19:04:32
00008 suncat0268 pw.x -in pw.inp   Done                     01/16/2018 19:04:32
00009 suncat0268 pw.x -in pw.inp   Done                     01/16/2018 19:04:32
00010 suncat0268 pw.x -in pw.inp   Done                     01/16/2018 19:04:32
00011 suncat0268 pw.x -in pw.inp   Done                     01/16/2018 19:04:32
00012 suncat0268 pw.x -in pw.inp   Done                     01/16/2018 19:04:32
00013 suncat0268 pw.x -in pw.inp   Done                     01/16/2018 19:04:32
00014 suncat0268 pw.x -in pw.inp   Done                     01/16/2018 19:04:32
00015 suncat0268 pw.x -in pw.inp   Done                     01/16/2018 19:04:32
00016 suncat0266 pw.x -in pw.inp   Done                     01/16/2018 19:04:32
00017 suncat0266 pw.x -in pw.inp   Done                     01/16/2018 19:04:32
00018 suncat0266 pw.x -in pw.inp   Done                     01/16/2018 19:04:32
00019 suncat0266 pw.x -in pw.inp   Done                     01/16/2018 19:04:32
00020 suncat0266 pw.x -in pw.inp   Done                     01/16/2018 19:04:32
00021 suncat0266 pw.x -in pw.inp   Done                     01/16/2018 19:04:32
00022 suncat0266 pw.x -in pw.inp   Done                     01/16/2018 19:04:32
00023 suncat0266 pw.x -in pw.inp   Done                     01/16/2018 19:04:32
00024 suncat0233 pw.x -in pw.inp   Done                     01/16/2018 19:04:32
00025 suncat0233 pw.x -in pw.inp   Done                     01/16/2018 19:04:32
00026 suncat0233 pw.x -in pw.inp   Done                     01/16/2018 19:04:32
00027 suncat0233 pw.x -in pw.inp   Done                     01/16/2018 19:04:32
00028 suncat0233 pw.x -in pw.inp   Done                     01/16/2018 19:04:32
00029 suncat0233 pw.x -in pw.inp   Done                     01/16/2018 19:04:32
00030 suncat0233 pw.x -in pw.inp   Done                     01/16/2018 19:04:32
00031 suncat0233 pw.x -in pw.inp   Done                     01/16/2018 19:04:32