     Program PWSCF v.5.1rc2 (svn rev. 11289) starts on 30Apr2018 at 17: 4:27

     Current dimensions of program PWSCF are:
     Max number of different atomic species (ntypx) = 10
     Max number of k-points (npk) =  40000
     Max angular momentum in pseudopotentials (lmaxx) =  3
     Presently stress not available with electric field

     IMPORTANT: XC functional enforced from input :
     Exchange-correlation      = BEEF-VDW ( 1  4 27 13 2)
     Any further DFT definition will be discarded
     Please, verify this is what you really want

     Subspace diagonalization in iterative solution of the eigenvalue problem:
     a serial algorithm will be used

     bravais-lattice index     =            0
     lattice parameter (alat)  =       1.8897  a.u.
     unit-cell volume          =    4650.5773 (a.u.)^3
     number of atoms/cell      =           13
     number of atomic types    =            2
     number of electrons       =        42.00
     number of Kohn-Sham states=           31
     kinetic-energy cutoff     =      36.7493  Ry
     charge density cutoff     =     367.4932  Ry
     convergence threshold     =      1.0E-05
     mixing beta               =       0.3000
     number of iterations used =           10  plain     mixing
     Exchange-correlation      = BEEF-VDW ( 1  4 27 13 2)
     nstep                     =           50

     celldm(1)=   1.889726  celldm(2)=   0.000000  celldm(3)=   0.000000
     celldm(4)=   0.000000  celldm(5)=   0.000000  celldm(6)=   0.000000

     crystal axes: (cart. coord. in units of alat)
               a(1) = (   5.682886   0.000000   0.000000 )
               a(2) = (   2.841443   4.921524   0.000000 )
               a(3) = (   0.000000   0.000000  24.640057 )

     reciprocal axes: (cart. coord. in units 2 pi/alat)
               b(1) = (  0.175967 -0.101595  0.000000 )
               b(2) = (  0.000000  0.203189  0.000000 )
               b(3) = (  0.000000  0.000000  0.040584 )

     PseudoPot. # 1 for Al read from file:
     /u/if/mamunm/psp/gbrv1.5pbe/Al.UPF
     MD5 check sum: 0a6289f5291fc8f409219462bc851e1f
     Pseudo is Ultrasoft + core correction, Zval =  3.0
     Generated by new atomic code, or converted to UPF format
     Using radial grid of  893 points,  3 beta functions with:
                l(1) =   0
                l(2) =   1
                l(3) =   2
     Q(r) pseudized with  8 coefficients,  rinner =    0.900   0.900   0.900
                                                       0.900   0.900

     PseudoPot. # 2 for S  read from file:
     /u/if/mamunm/psp/gbrv1.5pbe/S.UPF
     MD5 check sum: 88d86576ff6df21479756cfb9bdac1df
     Pseudo is Ultrasoft + core correction, Zval =  6.0
     Generated by new atomic code, or converted to UPF format
     Using radial grid of  907 points,  6 beta functions with:
                l(1) =   0
                l(2) =   0
                l(3) =   1
                l(4) =   1
                l(5) =   2
                l(6) =   2
     Q(r) pseudized with  8 coefficients,  rinner =    1.300   1.300   1.300
                                                       1.300   1.300

     vdW kernel table read from file vdW_kernel_table
     MD5 check sum: 095c7af220d748ca6e76c0b4c6cfb241

     atomic species   valence    mass     pseudopotential
        Al1            3.00    26.98154     Al( 1.00)
        S1             6.00    32.06000     S ( 1.00)

     No symmetry found

   Cartesian axes

     site n.     atom                  positions (alat units)
         1           Al1 tau(   1) = (   1.4207216   0.8202540  10.0000000  )
         2           Al1 tau(   2) = (   4.2621647   0.8202540  10.0000000  )
         3           Al1 tau(   3) = (   2.8414431   3.2810159  10.0000000  )
         4           Al1 tau(   4) = (   5.6828862   3.2810159  10.0000000  )
         5           Al1 tau(   5) = (   5.6828862   1.6405079  12.3200286  )
         6           Al1 tau(   6) = (   2.8414431   1.6405079  12.3200286  )
         7           Al1 tau(   7) = (   7.1036078   4.1012699  12.3200286  )
         8           Al1 tau(   8) = (   4.2621647   4.1012699  12.3200286  )
         9           Al1 tau(   9) = (   0.0000000   0.0000000  14.6400572  )
        10           Al1 tau(  10) = (   2.8414431   0.0000000  14.6400572  )
        11           Al1 tau(  11) = (   1.4207216   2.4607619  14.6400572  )
        12           Al1 tau(  12) = (   4.2621647   2.4607619  14.6400572  )
        13           S1  tau(  13) = (   1.4207216   0.8202540  16.1090572  )

     number of k points=    20  Fermi-Dirac smearing, width (Ry)=  0.0110
                       cart. coord. in units 2pi/alat
        k(    1) = (   0.0000000   0.0000000   0.0000000), wk =   0.0555556
        k(    2) = (   0.0000000   0.0338648   0.0000000), wk =   0.1111111
        k(    3) = (   0.0000000   0.0677297   0.0000000), wk =   0.1111111
        k(    4) = (   0.0000000  -0.1015945   0.0000000), wk =   0.0555556
        k(    5) = (   0.0293278  -0.0169324   0.0000000), wk =   0.1111111
        k(    6) = (   0.0293278   0.0169324   0.0000000), wk =   0.1111111
        k(    7) = (   0.0293278   0.0507973   0.0000000), wk =   0.1111111
        k(    8) = (   0.0293278  -0.1185270   0.0000000), wk =   0.1111111
        k(    9) = (   0.0293278  -0.0846621   0.0000000), wk =   0.1111111
        k(   10) = (   0.0293278  -0.0507973   0.0000000), wk =   0.1111111
        k(   11) = (   0.0586556  -0.0338648   0.0000000), wk =   0.1111111
        k(   12) = (   0.0586556   0.0000000   0.0000000), wk =   0.1111111
        k(   13) = (   0.0586556   0.0338648   0.0000000), wk =   0.1111111
        k(   14) = (   0.0586556  -0.1354594   0.0000000), wk =   0.1111111
        k(   15) = (   0.0586556  -0.1015945   0.0000000), wk =   0.1111111
        k(   16) = (   0.0586556  -0.0677297   0.0000000), wk =   0.1111111
        k(   17) = (  -0.0879835   0.0507973   0.0000000), wk =   0.0555556
        k(   18) = (  -0.0879835   0.0846621   0.0000000), wk =   0.1111111
        k(   19) = (  -0.0879835   0.1185270   0.0000000), wk =   0.1111111
        k(   20) = (  -0.0879835  -0.0507973   0.0000000), wk =   0.0555556

     Largest allocated arrays     est. size (Mb)     dimensions
     Largest temporary arrays     est. size (Mb)     dimensions

     Initial potential from superposition of free atoms
     Check: negative starting charge=   -0.000155

     starting charge   41.97038, renormalised to   42.00000

     negative rho (up, down):  1.551E-04 0.000E+00

     *
     * You are using vdW-DF for exchange-correlation in this calculation.
     * Please cite the following three references that made this development
     * possible:
     *
     *   M. Dion, H. Rydberg, E. Schroder, D. C. Langreth, and
     *   B. I. Lundqvist, Phys. Rev. Lett. 92, 246401 (2004).
     *
     *   T. Thonhauser, V. R. Cooper, S. Li, A. Puzder, P. Hyldgaard, and
     *   D. C. Langreth, Phys. Rev. B 76, 125112 (2007).
     *
     *   G. Roman-Perez and J. M. Soler, Phys. Rev. Lett. 103, 096102 (2009).
     *
     *
     * If you are using vdW-DF2, please also cite:
     *
     *   K. Lee, E. D. Murray, L. Kong, B. I. Lundqvist, and
     *   D. C. Langreth, Phys. Rev. B 82, 081101(R) (2010).
     *
     *
     * If you are calculating the stress with vdW-DF, please also cite:
     *
     *   R. Sabatini, E. Kucukbenli, B. Kolb, T. Thonhauser, and
     *   S. de Gironcoli, J. Phys.: Condens. Matter 24, 424209 (2012).
     *

     Carrying out vdW-DF run using the following parameters:

     Nqs =      20    Nr_points =    1024   r_max =   100.000
     q_mesh =
               0.00001000     0.04494208     0.09755937     0.15916263
               0.23128650     0.31572767     0.41458969     0.53033537
               0.66584808     0.82450364     1.01025438     1.22772762
               1.48234092     1.78043706     2.12944203     2.53805004
               3.01644009     3.57652955     4.23227104     5.00000000

     Gradients computed in reciprocal space

     Adding external electric field

     Computed dipole along edir(3) :
        Dipole               -0.0301 Ry au,         -0.0764 Debye
        Dipole field         -0.0001 Ry au

        Potential amp.        0.0074 Ry
        Total length         45.3989 bohr

     Starting wfc are   52 randomized atomic wfcs

     Self-consistent Calculation

     iteration #  1     ecut=    36.75 Ry     beta=0.30
     Davidson diagonalization with overlap
     ethr =  1.00E-02,  avg # of iterations =  3.0

[...]

     total energy              =    -106.72086260 Ry
     Harris-Foulkes estimate   =    -107.06047806 Ry
     estimated scf accuracy    <       0.81742472 Ry

[...]

     End of self-consistent calculation

          k = 0.0000 0.0000 0.0000 ( 17579 PWs)   bands (ev):

   -15.1813 -11.0576  -9.2292  -6.5836  -6.3514  -6.3514  -5.8284  -5.2133
    -5.2133  -5.1589  -4.8442  -4.8442  -4.6599  -3.6811  -3.5549  -3.5549
    -3.4625  -2.9740  -2.9740  -2.0295  -0.9396  -0.9396  -0.7383   0.0362
     0.2678   0.2678   0.7844   1.9214   1.9214   2.1033   2.4000

[...]

          k =-0.0880 0.0508 0.0000 ( 17464 PWs)   bands (ev):

[...]

     the Fermi energy is    -0.4770 ev

!    total energy              =    -106.91131304 Ry
     Harris-Foulkes estimate   =    -106.91131368 Ry
     estimated scf accuracy    <       0.00000027 Ry

     The total energy is the sum of the following terms:

     one-electron contribution =    -769.82814944 Ry
     hartree contribution      =     393.49059227 Ry
     xc contribution           =     -62.16882114 Ry
     ewald contribution        =     331.62225746 Ry
     electric field correction =       0.00001225 Ry
     smearing contrib. (-TS)   =      -0.02720444 Ry

     convergence has been achieved in  11 iterations

 BEEF-vdW xc energy contributions
           1 :   -51.2235626189928
           2 :    44.0772736793073
           3 :   -33.0110052330534
           4 :    22.2588424329919
           5 :   -14.6195214349181
           6 :    10.4352435462170
           7 :   -8.30026568672473
           8 :    6.63544013145808
           9 :   -4.83728957505720
          10 :    3.28214686224734
          11 :   -2.51002419540562
          12 :    2.49594505265176
          13 :   -2.64716058674063
          14 :    2.38894529018761
          15 :   -1.68234369447362
          16 :   0.977305546381331
          17 :  -0.710954281774200
          18 :   0.881036298181371
          19 :   -1.08960045062327
          20 :   0.956157566252202
          21 :  -0.466648523906649
          22 :  -6.059908330982466E-002
          23 :   0.308857185528041
          24 :  -0.247059183244026
          25 :   0.107760062890229
          26 :  -0.123577148049890
          27 :   0.305138794422021
          28 :  -0.468730398346622
          29 :   0.454274583761944
          30 :  -0.295287990001398
          31 :   -7.49332490919016
          32 :   -5.44571526549906

     Forces acting on atoms (Ry/au):

     negative rho (up, down):  3.864E-04 0.000E+00
     atom    1 type  1   force =    -0.00000034   -0.00000008    0.00075946
     atom    2 type  1   force =     0.00000001   -0.00083609   -0.00032236
     atom    3 type  1   force =    -0.00072420    0.00041801   -0.00032247
     atom    4 type  1   force =     0.00072422    0.00041793   -0.00032301
     atom    5 type  1   force =    -0.00171404    0.00098980    0.00930851
     atom    6 type  1   force =     0.00171420    0.00098989    0.00930835
     atom    7 type  1   force =     0.00000004   -0.00000006   -0.00788768
     atom    8 type  1   force =     0.00000006   -0.00197970    0.00930880
     atom    9 type  1   force =    -0.05869403   -0.03388700   -0.03352560
     atom   10 type  1   force =     0.05869424   -0.03388695   -0.03352541
     atom   11 type  1   force =     0.00000025    0.06777414   -0.03352527
     atom   12 type  1   force =    -0.00000019    0.00000002   -0.02188682
     atom   13 type  2   force =    -0.00000022    0.00000009    0.10263350

     Total force =     0.167823     Total SCF correction =     0.000160

     entering subroutine stress ...

     negative rho (up, down):  3.864E-04 0.000E+00
          total   stress  (Ry/bohr**3)                   (kbar)     P=    2.73
   0.00000658   0.00000000   0.00000000          0.97      0.00      0.00
   0.00000000   0.00000658  -0.00000000          0.00      0.97     -0.00
   0.00000000  -0.00000000   0.00004251          0.00     -0.00      6.25

     BFGS Geometry Optimization

     number of scf cycles    =   1
     number of bfgs steps    =   0

     energy   new            =    -106.9113130409 Ry

     new trust radius        =       0.1026334995 bohr
     new conv_thr            =       0.0000099958 Ry

ATOMIC_POSITIONS (crystal)
Al1      0.166666667   0.166666667   0.405843214    0   0   0
Al1      0.666666667   0.166666667   0.405843214    0   0   0
Al1      0.166666667   0.666666667   0.405843214    0   0   0
Al1      0.666666667   0.666666667   0.405843214    0   0   0
Al1      0.833333333   0.333333333   0.500000000    0   0   0
Al1      0.333333333   0.333333333   0.500000000    0   0   0
Al1      0.833333333   0.833333333   0.500000000    0   0   0
Al1      0.333333333   0.833333333   0.500000000    0   0   0
Al1     -0.003643635  -0.003643633   0.593436780
Al1      0.507287286  -0.003643628   0.593436784
Al1     -0.003643618   0.507287281   0.593436787
Al1      0.499999981   0.500000002   0.593686738
S1       0.166666641   0.166666677   0.655979342

     Writing output data file calc.save
     Check: negative starting charge=   -0.000155
     NEW-OLD atomic charge density approx. for the potential
     Check: negative starting charge=   -0.000156

[...]

     energy   old            =    -106.9113130409 Ry
     energy   new            =    -106.9313077216 Ry

     CASE: energy  _new < energy  _old

[...]

     Threshold (ethr) on eigenvalues was too large:
     Diagonalizing with lowered threshold

     Davidson diagonalization with overlap
     ethr =  6.70E-08,  avg # of iterations =  1.1

[...]

     Total force =     0.002701     Total SCF correction =     0.000089

[...]

     number of scf cycles    =  11
     number of bfgs steps    =  10

     energy   old            =    -106.9400285894 Ry
     energy   new            =    -106.9400468885 Ry

     CASE: energy  _new < energy  _old

     new trust radius        =       0.0117634140 bohr
     new conv_thr            =       0.0000001000 Ry

ATOMIC_POSITIONS (crystal)
Al1      0.166666667   0.166666667   0.405843214    0   0   0
Al1      0.666666667   0.166666667   0.405843214    0   0   0
Al1      0.166666667   0.666666667   0.405843214    0   0   0
Al1      0.666666667   0.666666667   0.405843214    0   0   0
Al1      0.833333333   0.333333333   0.500000000    0   0   0
Al1      0.333333333   0.333333333   0.500000000    0   0   0
Al1      0.833333333   0.833333333   0.500000000    0   0   0
Al1      0.333333333   0.833333333   0.500000000    0   0   0
Al1     -0.008501163  -0.008501294   0.594444952
Al1      0.517002484  -0.008501205   0.594444943
Al1     -0.008501162   0.517002470   0.594444949
Al1      0.500000019   0.500000005   0.588545313
S1       0.166666953   0.166666509   0.658548191

     Writing output data file calc.save
     Check: negative starting charge=   -0.000142
     NEW-OLD atomic charge density approx. for the potential
     Check: negative starting charge=   -0.000142

[...]

     Self-consistent Calculation

[...]

     Threshold (ethr) on eigenvalues was too large:
     Diagonalizing with lowered threshold

     Davidson diagonalization with overlap
     ethr =  2.58E-08,  avg # of iterations =  1.6

[...]

     total energy              =    -106.94006348 Ry
     Harris-Foulkes estimate   =    -106.94006337 Ry
     estimated scf accuracy    <       0.00000026 Ry

     iteration #  6     ecut=    36.75 Ry     beta=0.30
     Davidson diagonalization with overlap
     ethr =  6.13E-10,  avg # of iterations =  2.0

[...]

     negative rho (up, down):  3.610E-04 0.000E+00

     Adding external electric field

     Computed dipole along edir(3) :
        Dipole               -0.1694 Ry au,         -0.4305 Debye
        Dipole field         -0.0005 Ry au

        Potential amp.        0.0416 Ry
        Total length         45.3989 bohr

     End of self-consistent calculation

[...]

          k = 0.0587-0.0677 0.0000 ( 17495 PWs)   bands (ev):

[...]

          k =-0.0880-0.0508 0.0000 ( 17464 PWs)   bands (ev):

   -14.3523  -9.8994  -9.7092  -8.3167  -7.9306  -6.9648  -6.8694  -6.0023
    -5.8005  -5.5286  -5.3121  -4.1770  -4.0001  -3.4859  -2.5488  -1.9135
    -1.7444  -1.3931  -1.1208  -0.9022  -0.8535  -0.1959   0.2548   0.4884
     0.8870   0.8988   1.0942   1.3373   1.9263   2.0843   2.1935

     the Fermi energy is    -0.6292 ev

!    total energy              =    -106.94006350 Ry
     Harris-Foulkes estimate   =    -106.94006364 Ry
     estimated scf accuracy    <       0.00000004 Ry

     The total energy is the sum of the following terms:

     one-electron contribution =    -763.26892184 Ry
     hartree contribution      =     390.14242806 Ry
     xc contribution           =     -62.09124491 Ry
     ewald contribution        =     328.30460346 Ry
     electric field correction =       0.00007753 Ry
     smearing contrib. (-TS)   =      -0.02700579 Ry

     convergence has been achieved in   6 iterations

 BEEF-vdW xc energy contributions
           1 :   -51.1461406694447
           2 :    43.9778223967731
           3 :   -32.8883094401204
           4 :    22.1306390220137
           5 :   -14.5075509691498
           6 :    10.3539515816518
           7 :   -8.25384000619864
           8 :    6.62106719273655
           9 :   -4.84888992541786
          10 :    3.31229388019104
          11 :   -2.55145531391945
          12 :    2.54392505478253
          13 :   -2.70057447702334
          14 :    2.44763554835220
          15 :   -1.74244883192985
          16 :    1.02959896749528
          17 :  -0.745219969356057
          18 :   0.893712826253278
          19 :   -1.08667937945889
          20 :   0.946871631994789
          21 :  -0.453700615531318
          22 :  -8.309448153019616E-002
          23 :   0.346206926163283
          24 :  -0.293007686168004
          25 :   0.144967798949601
          26 :  -0.138161243743824
          27 :   0.302368869509152
          28 :  -0.472575677714417
          29 :   0.487646559858590
          30 :  -0.358524166150801
          31 :   -7.48832517823611
          32 :   -5.43530951478342

     Forces acting on atoms (Ry/au):

     negative rho (up, down):  3.610E-04 0.000E+00
     atom    1 type  1   force =     0.00000001    0.00000002    0.00092291
     atom    2 type  1   force =     0.00000001   -0.00064294   -0.00046700
     atom    3 type  1   force =    -0.00055681    0.00032148   -0.00046698
     atom    4 type  1   force =     0.00055683    0.00032147   -0.00046698
     atom    5 type  1   force =     0.00298031   -0.00172069    0.00440881
     atom    6 type  1   force =    -0.00298029   -0.00172065    0.00440879
     atom    7 type  1   force =     0.00000003    0.00000001   -0.01543464
     atom    8 type  1   force =    -0.00000002    0.00344135    0.00440879
     atom    9 type  1   force =    -0.00063215   -0.00036488    0.00038648
     atom   10 type  1   force =     0.00063230   -0.00036509    0.00038642
     atom   11 type  1   force =    -0.00000006    0.00072990    0.00038654
     atom   12 type  1   force =     0.00000007   -0.00000002    0.00047774
     atom   13 type  2   force =    -0.00000024    0.00000005    0.00104911

     Total force =     0.001837     Total SCF correction =     0.000212
     SCF correction compared to forces is large: reduce conv_thr to get better values

     entering subroutine stress ...

     negative rho (up, down):  3.610E-04 0.000E+00
          total   stress  (Ry/bohr**3)                   (kbar)     P=   -2.01
  -0.00002208   0.00000000  -0.00000000         -3.25      0.00     -0.00
   0.00000000  -0.00002208   0.00000000          0.00     -3.25      0.00
  -0.00000000   0.00000000   0.00000322         -0.00      0.00      0.47

     bfgs converged in  12 scf cycles and  11 bfgs steps
     (criteria: energy <  1.0E+00, force <  1.9E-03)

     End of BFGS Geometry Optimization

     Final energy   =    -106.9400634961 Ry
Begin final coordinates

ATOMIC_POSITIONS (crystal)
Al1      0.166666667   0.166666667   0.405843214    0   0   0
Al1      0.666666667   0.166666667   0.405843214    0   0   0
Al1      0.166666667   0.666666667   0.405843214    0   0   0
Al1      0.666666667   0.666666667   0.405843214    0   0   0
Al1      0.833333333   0.333333333   0.500000000    0   0   0
Al1      0.333333333   0.333333333   0.500000000    0   0   0
Al1      0.833333333   0.833333333   0.500000000    0   0   0
Al1      0.333333333   0.833333333   0.500000000    0   0   0
Al1     -0.008501163  -0.008501294   0.594444952
Al1      0.517002484  -0.008501205   0.594444943
Al1     -0.008501162   0.517002470   0.594444949
Al1      0.500000019   0.500000005   0.588545313
S1       0.166666953   0.166666509   0.658548191
End final coordinates

     Writing output data file calc.save

     General routines

     Parallel routines

   This run was terminated on:  17:30:57  30Apr2018

   JOB DONE.
Job  /afs/slac/g/suncat/bin/suncat-tsmpirun -x LD_LIBRARY_PATH -wdir /scratch/qe541092_MTWh4 pw.x -npool 4 -in pw.inp

TID   HOST_NAME   COMMAND_LINE            STATUS            TERMINATION_TIME
00000 suncat0185 pw.x -npool 4 -i  Done                     04/30/2018 17:30:57
00001 suncat0185 pw.x -npool 4 -i  Done                     04/30/2018 17:30:57
00002 suncat0185 pw.x -npool 4 -i  Done                     04/30/2018 17:30:57
00003 suncat0185 pw.x -npool 4 -i  Done                     04/30/2018 17:30:57
00004 suncat0185 pw.x -npool 4 -i  Done                     04/30/2018 17:30:57
00005 suncat0185 pw.x -npool 4 -i  Done                     04/30/2018 17:30:57
00006 suncat0185 pw.x -npool 4 -i  Done                     04/30/2018 17:30:57
00007 suncat0185 pw.x -npool 4 -i  Done                     04/30/2018 17:30:57
00008 suncat0171 pw.x -npool 4 -i  Done                     04/30/2018 17:30:57
00009 suncat0171 pw.x -npool 4 -i  Done                     04/30/2018 17:30:57
00010 suncat0171 pw.x -npool 4 -i  Done                     04/30/2018 17:30:57
00011 suncat0171 pw.x -npool 4 -i  Done                     04/30/2018 17:30:57
00012 suncat0171 pw.x -npool 4 -i  Done                     04/30/2018 17:30:57
00013 suncat0171 pw.x -npool 4 -i  Done                     04/30/2018 17:30:57
00014 suncat0171 pw.x -npool 4 -i  Done                     04/30/2018 17:30:57
00015 suncat0171 pw.x -npool 4 -i  Done                     04/30/2018 17:30:57
00016 suncat0151 pw.x -npool 4 -i  Done                     04/30/2018 17:30:57
00017 suncat0151 pw.x -npool 4 -i  Done                     04/30/2018 17:30:57
00018 suncat0151 pw.x -npool 4 -i  Done                     04/30/2018 17:30:57
00019 suncat0151 pw.x -npool 4 -i  Done                     04/30/2018 17:30:57
00020 suncat0151 pw.x -npool 4 -i  Done                     04/30/2018 17:30:57
00021 suncat0151 pw.x -npool 4 -i  Done                     04/30/2018 17:30:57
00022 suncat0151 pw.x -npool 4 -i  Done                     04/30/2018 17:30:57
00023 suncat0151 pw.x -npool 4 -i  Done                     04/30/2018 17:30:57
00024 suncat0279 pw.x -npool 4 -i  Done                     04/30/2018 17:30:57
00025 suncat0279 pw.x -npool 4 -i  Done                     04/30/2018 17:30:57
00026 suncat0279 pw.x -npool 4 -i  Done                     04/30/2018 17:30:57
00027 suncat0279 pw.x -npool 4 -i  Done                     04/30/2018 17:30:57
00028 suncat0279 pw.x -npool 4 -i  Done                     04/30/2018 17:30:57
00029 suncat0279 pw.x -npool 4 -i  Done                     04/30/2018 17:30:57
00030 suncat0279 pw.x -npool 4 -i  Done                     04/30/2018 17:30:57
00031 suncat0279 pw.x -npool 4 -i  Done                     04/30/2018 17:30:57