     Program PWSCF v.5.1rc2 starts on 21Feb2018 at 11:55:25

     Current dimensions of program PWSCF are:
     Max number of different atomic species (ntypx) = 10
     Max number of k-points (npk) =  40000
     Max angular momentum in pseudopotentials (lmaxx) =  3
     Presently stress not available with electric field

     IMPORTANT: XC functional enforced from input :
     Exchange-correlation      = BEEF-VDW ( 1  4 27 13 2)
     Any further DFT definition will be discarded
     Please, verify this is what you really want

     bravais-lattice index     =            0
     lattice parameter (alat)  =       1.8897  a.u.
     unit-cell volume          =    5739.2980 (a.u.)^3
     number of atoms/cell      =           13
     number of atomic types    =            2
     number of electrons       =       145.00
     number of Kohn-Sham states=           82
     kinetic-energy cutoff     =      36.7493  Ry
     charge density cutoff     =     367.4932  Ry
     convergence threshold     =      1.0E-05
     mixing beta               =       0.3000
     number of iterations used =           10  plain     mixing
     Exchange-correlation      = BEEF-VDW ( 1  4 27 13 2)
     nstep                     =           50

     celldm(1)=   1.889726  celldm(2)=   0.000000  celldm(3)=   0.000000
     celldm(4)=   0.000000  celldm(5)=   0.000000  celldm(6)=   0.000000

     crystal axes: (cart. coord. in units of alat)
               a(1) = (   6.254208   0.000000   0.000000 )
               a(2) = (   3.127104   5.416303   0.000000 )
               a(3) = (   0.000000   0.000000  25.106540 )

     reciprocal axes: (cart. coord. in units 2 pi/alat)
               b(1) = (  0.159892 -0.092314  0.000000 )
               b(2) = (  0.000000  0.184628  0.000000 )
               b(3) = (  0.000000  0.000000  0.039830 )

     PseudoPot. # 1 for Cd read from file:
     /home/users/mamunm/src/pseudo/gbrv1.5pbe/Cd.UPF
     MD5 check sum: 17164a7926edb8e0dc231208abae86a6
     Pseudo is Ultrasoft + core correction, Zval = 12.0
     Generated by new atomic code, or converted to UPF format
     Using radial grid of  889 points,  6 beta functions with:
                l(1) =   0
                l(2) =   0
                l(3) =   1
                l(4) =   1
                l(5) =   2
                l(6) =   2
     Q(r) pseudized with  6 coefficients,  rinner =    1.000   1.000   1.000
                                                       1.000   1.000

     PseudoPot. # 2 for H  read from file:
     /home/users/mamunm/src/pseudo/gbrv1.5pbe/H.UPF
     MD5 check sum: 761ae9a214b05c3daf00ab9f6b793d6f
     Pseudo is Ultrasoft, Zval =  1.0
     Generated by new atomic code, or converted to UPF format
     Using radial grid of  615 points,  2 beta functions with:
                l(1) =   0
                l(2) =   0
     Q(r) pseudized with  8 coefficients,  rinner =    0.700

     vdW kernel table read from file vdW_kernel_table
     MD5 check sum: 095c7af220d748ca6e76c0b4c6cfb241

     atomic species   valence    mass     pseudopotential
        Cd1           12.00   112.41400     Cd( 1.00)
        H1             1.00     1.00800     H ( 1.00)

     No symmetry found

   Cartesian axes

     site n.     atom                  positions (alat units)
         1           Cd1 tau(   1) = (   1.5635521   0.9027172  10.0000000  )
         2           Cd1 tau(   2) = (   4.6906562   0.9027172  10.0000000  )
         3           Cd1 tau(   3) = (   3.1271041   3.6108688  10.0000000  )
         4           Cd1 tau(   4) = (   6.2542083   3.6108688  10.0000000  )
         5           Cd1 tau(   5) = (   6.2542083   1.8054344  12.5532698  )
         6           Cd1 tau(   6) = (   3.1271041   1.8054344  12.5532698  )
         7           Cd1 tau(   7) = (   7.8177603   4.5135860  12.5532698  )
         8           Cd1 tau(   8) = (   4.6906562   4.5135860  12.5532698  )
         9           Cd1 tau(   9) = (   0.0000000   0.0000000  15.1065397  )
        10           Cd1 tau(  10) = (   3.1271041   0.0000000  15.1065397  )
        11           Cd1 tau(  11) = (   1.5635521   2.7081516  15.1065397  )
        12           Cd1 tau(  12) = (   4.6906562   2.7081516  15.1065397  )
        13           H1  tau(  13) = (   1.5635521   0.0000000  16.4190397  )

     number of k points=    20  Fermi-Dirac smearing, width (Ry)=  0.0110
                       cart. coord. in units 2pi/alat
        k(    1) = (   0.0000000   0.0000000   0.0000000), wk =   0.0555556
        k(    2) = (   0.0000000   0.0307713   0.0000000), wk =   0.1111111
        k(    3) = (   0.0000000   0.0615426   0.0000000), wk =   0.1111111
        k(    4) = (   0.0000000  -0.0923139   0.0000000), wk =   0.0555556
        k(    5) = (   0.0266487  -0.0153856   0.0000000), wk =   0.1111111
        k(    6) = (   0.0266487   0.0153856   0.0000000), wk =   0.1111111
        k(    7) = (   0.0266487   0.0461569   0.0000000), wk =   0.1111111
        k(    8) = (   0.0266487  -0.1076995   0.0000000), wk =   0.1111111
        k(    9) = (   0.0266487  -0.0769282   0.0000000), wk =   0.1111111
        k(   10) = (   0.0266487  -0.0461569   0.0000000), wk =   0.1111111
        k(   11) = (   0.0532974  -0.0307713   0.0000000), wk =   0.1111111
        k(   12) = (   0.0532974  -0.0000000   0.0000000), wk =   0.1111111
        k(   13) = (   0.0532974   0.0307713   0.0000000), wk =   0.1111111
        k(   14) = (   0.0532974  -0.1230852   0.0000000), wk =   0.1111111
        k(   15) = (   0.0532974  -0.0923139   0.0000000), wk =   0.1111111
        k(   16) = (   0.0532974  -0.0615426   0.0000000), wk =   0.1111111
        k(   17) = (  -0.0799462   0.0461569   0.0000000), wk =   0.0555556
        k(   18) = (  -0.0799462   0.0769282   0.0000000), wk =   0.1111111
        k(   19) = (  -0.0799462   0.1076995   0.0000000), wk =   0.1111111
        k(   20) = (  -0.0799462  -0.0461569   0.0000000), wk =   0.0555556

     Largest allocated arrays     est. size (Mb)     dimensions
     Largest temporary arrays     est. size (Mb)     dimensions

     Initial potential from superposition of free atoms
     Check: negative starting charge=   -0.257923

     starting charge  138.99950, renormalised to  145.00000

     negative rho (up, down):  2.691E-01 0.000E+00

     *
     * You are using vdW-DF for exchange-correlation in this calculation.
     * Please cite the following three references that made this development
     * possible:
     *
     *   M. Dion, H. Rydberg, E. Schroder, D. C. Langreth, and
     *   B. I. Lundqvist, Phys. Rev. Lett. 92, 246401 (2004).
     *
     *   T. Thonhauser, V. R. Cooper, S. Li, A. Puzder, P. Hyldgaard, and
     *   D. C. Langreth, Phys. Rev. B 76, 125112 (2007).
     *
     *   G. Roman-Perez and J. M. Soler, Phys. Rev. Lett. 103, 096102 (2009).
     *
     *
     * If you are using vdW-DF2, please also cite:
     *
     *   K. Lee, E. D. Murray, L. Kong, B. I. Lundqvist, and
     *   D. C. Langreth, Phys. Rev. B 82, 081101(R) (2010).
     *
     *
     * If you are calculating the stress with vdW-DF, please also cite:
     *
     *   R. Sabatini, E. Kucukbenli, B. Kolb, T. Thonhauser, and
     *   S. de Gironcoli, J. Phys.: Condens. Matter 24, 424209 (2012).
     *

     Carrying out vdW-DF run using the following parameters:

     Nqs =      20    Nr_points =    1024   r_max =   100.000
     q_mesh =
               0.00001000     0.04494208     0.09755937     0.15916263
               0.23128650     0.31572767     0.41458969     0.53033537
               0.66584808     0.82450364     1.01025438     1.22772762
               1.48234092     1.78043706     2.12944203     2.53805004
               3.01644009     3.57652955     4.23227104     5.00000000

     Gradients computed in reciprocal space

     Adding external electric field

     Computed dipole along edir(3) :
        Dipole               -0.3153 Ry au,         -0.8014 Debye
        Dipole field         -0.0007 Ry au

        Potential amp.        0.0639 Ry
        Total length         46.2584 bohr

     Starting wfc are  109 randomized atomic wfcs

     Self-consistent Calculation

     iteration #  1     ecut=    36.75 Ry     beta=0.30
     Davidson diagonalization with overlap
     ethr =  1.00E-02,  avg # of iterations =  3.0

[...]

     total energy              =   -1393.86763203 Ry
     Harris-Foulkes estimate   =   -1394.56907320 Ry
     estimated scf accuracy    <       1.57745353 Ry

[...]

     End of self-consistent calculation

          k = 0.0000 0.0000 0.0000 ( 21643 PWs)   bands (ev):

    -9.4030  -9.3972  -9.3972  -9.2988  -9.2593  -9.2554  -9.2522  -9.2036
    -9.1668  -9.1539  -9.0992  -9.0942  -9.0881  -8.9616  -8.8986  -8.8614
    -8.8607  -8.8554  -8.8447  -8.8443  -8.8050  -8.7758  -8.7685  -8.7380
    -8.7349  -8.7283  -8.7237  -8.7166  -8.6314  -8.6283  -8.4045  -8.4023
    -8.3368  -8.3356  -8.3236  -8.2920  -8.2833  -8.2597  -8.2188  -8.2119
    -8.2084  -8.1962  -8.1942  -8.1281  -8.1224  -8.1208  -8.0791  -8.0787
    -8.0609  -8.0581  -8.0548  -8.0287  -8.0251  -8.0105  -7.9402  -7.9203
    -7.9061  -7.8694  -7.8600  -7.8584  -7.7659  -6.1447  -3.8912  -2.2645
    -1.7169  -1.7138  -1.6510  -1.4325  -1.4269  -1.1947  -0.5472  -0.4943
    -0.4870   0.1272   0.3764   0.4055   1.1888   1.8798   1.9258   2.1343
     2.3645   2.3827

[...]

          k =-0.0799 0.0462 0.0000 ( 21576 PWs)   bands (ev):

[...]

     the Fermi energy is     0.5341 ev

!    total energy              =   -1394.15539816 Ry
     Harris-Foulkes estimate   =   -1394.15539567 Ry
     estimated scf accuracy    <       0.00000467 Ry

     The total energy is the sum of the following terms:

     one-electron contribution =   -8786.89705713 Ry
     hartree contribution      =    4485.98460027 Ry
     xc contribution           =    -490.41459879 Ry
     ewald contribution        =    3397.19940862 Ry
     electric field correction =       0.00001293 Ry
     smearing contrib. (-TS)   =      -0.02776406 Ry

     convergence has been achieved in   9 iterations

 BEEF-vdW xc energy contributions
           1 :   -429.766917100648
           2 :    393.209342829988
           3 :   -331.494359429568
           4 :    262.137859875768
           5 :   -201.345632383201
           6 :    158.207002199449
           7 :   -132.942622908070
           8 :    119.388842780747
           9 :   -109.768764179343
          10 :    98.9481921943521
          11 :   -86.1330585482012
          12 :    73.7159872827101
          13 :   -64.6073129738012
          14 :    59.9638609969665
          15 :   -58.5859676693234
          16 :    57.9829540425467
          17 :   -56.0873470848746
          18 :    52.4033848166177
          19 :   -47.9677941549505
          20 :    44.3616361976804
          21 :   -42.5641272488676
          22 :    42.3969259857149
          23 :   -42.8004994097198
          24 :    42.6174137375519
          25 :   -41.3028545154303
          26 :    39.1389559687003
          27 :   -36.9143478755541
          28 :    35.3613512039949
          29 :   -34.7322215081048
          30 :    34.7379268169683
          31 :   -38.6878512179130
          32 :   -28.2538954418717

     Forces acting on atoms (Ry/au):

     negative rho (up, down):  2.665E-01 0.000E+00
     atom    1 type  1   force =    -0.00001236   -0.00300847   -0.01344844
     atom    2 type  1   force =     0.00000911   -0.00048998   -0.01547642
     atom    3 type  1   force =     0.00142625    0.00154758   -0.01534305
     atom    4 type  1   force =    -0.00137926    0.00155552   -0.01533247
     atom    5 type  1   force =     0.00253831   -0.00276404    0.00113303
     atom    6 type  1   force =    -0.00251713   -0.00276831    0.00112458
     atom    7 type  1   force =    -0.00001329    0.00114402   -0.00079945
     atom    8 type  1   force =    -0.00001336    0.00155836    0.00572555
     atom    9 type  1   force =    -0.00530497    0.00094011    0.01933640
     atom   10 type  1   force =     0.00529083    0.00095527    0.01933335
     atom   11 type  1   force =    -0.00001107    0.00967660    0.01181443
     atom   12 type  1   force =    -0.00001192   -0.01080165    0.00989412
     atom   13 type  2   force =    -0.00000115    0.00245499   -0.00796162

     Total force =     0.036370     Total SCF correction =     0.004459
     SCF correction compared to forces is large: reduce conv_thr to get better values

     entering subroutine stress ...

     negative rho (up, down):  2.665E-01 0.000E+00
          total   stress  (Ry/bohr**3)                   (kbar)     P=    3.60
  -0.00001186  -0.00000000  -0.00000000         -1.75     -0.00     -0.00
  -0.00000000   0.00001081   0.00000383         -0.00      1.59      0.56
  -0.00000000   0.00000383   0.00007438         -0.00      0.56     10.94

     BFGS Geometry Optimization

     number of scf cycles    =   1
     number of bfgs steps    =   0

     energy   new            =   -1394.1553981650 Ry

     new trust radius        =       0.0200729384 bohr
     new conv_thr            =       0.0000099958 Ry

ATOMIC_POSITIONS (crystal)
Cd1      0.166666667   0.166666667   0.398302599    0   0   0
Cd1      0.666666667   0.166666667   0.398302599    0   0   0
Cd1      0.166666667   0.666666667   0.398302599    0   0   0
Cd1      0.666666667   0.666666667   0.398302599    0   0   0
Cd1      0.833333333   0.333333333   0.500000000    0   0   0
Cd1      0.333333333   0.333333333   0.500000000    0   0   0
Cd1      0.833333333   0.833333333   0.500000000    0   0   0
Cd1      0.333333333   0.833333333   0.500000000    0   0   0
Cd1     -0.000494786   0.000091849   0.602104960
Cd1      0.500400999   0.000093331   0.602104895
Cd1     -0.000473642   0.500945411   0.601946417
Cd1      0.500526656   0.498944670   0.601905942
H1       0.249879976   0.000239854   0.653806808

     Writing output data file calc.save
     Check: negative starting charge=   -0.257923
     NEW-OLD atomic charge density approx. for the potential
     Check: negative starting charge=   -0.258765

[...]

     energy   old            =   -1394.1553981650 Ry
     energy   new            =   -1394.1567765886 Ry

     CASE: energy  _new < energy  _old

     WARNING: bfgs curvature condition failed, Theta= 0.967
     new trust radius        =       0.0220802322 bohr
     new conv_thr            =       0.0000001000 Ry

[...]

     Total force =     0.034843     Total SCF correction =     0.001215

[...]

     WARNING: bfgs curvature condition failed, Theta= 0.891
     new trust radius        =       0.0392161949 bohr
     new conv_thr            =       0.0000001000 Ry

[...]

     Total force =     0.005232     Total SCF correction =     0.000224

[...]

     number of scf cycles    =  24
     number of bfgs steps    =  23

     energy   old            =   -1394.1750458251 Ry
     energy   new            =   -1394.1752945780 Ry

     CASE: energy  _new < energy  _old

     new trust radius        =       0.0882215645 bohr
     new conv_thr            =       0.0000001000 Ry

ATOMIC_POSITIONS (crystal)
Cd1      0.166666667   0.166666667   0.398302599    0   0   0
Cd1      0.666666667   0.166666667   0.398302599    0   0   0
Cd1      0.166666667   0.666666667   0.398302599    0   0   0
Cd1      0.666666667   0.666666667   0.398302599    0   0   0
Cd1      0.833333333   0.333333333   0.500000000    0   0   0
Cd1      0.333333333   0.333333333   0.500000000    0   0   0
Cd1      0.833333333   0.833333333   0.500000000    0   0   0
Cd1      0.333333333   0.833333333   0.500000000    0   0   0
Cd1     -0.006267887   0.000200321   0.620246491
Cd1      0.506293878   0.000074093   0.620272090
Cd1     -0.010861983   0.521451332   0.612536457
Cd1      0.507724797   0.484657737   0.608823393
H1       0.230361004   0.039338450   0.664238347

     Writing output data file calc.save
     Check: negative starting charge=   -0.260861
     NEW-OLD atomic charge density approx. for the potential
     Check: negative starting charge=   -0.260348

[...]

     Self-consistent Calculation

[...]

     total energy              =   -1394.17547938 Ry
     Harris-Foulkes estimate   =   -1394.17547841 Ry
     estimated scf accuracy    <       0.00000036 Ry

     iteration #  8     ecut=    36.75 Ry     beta=0.30
     Davidson diagonalization with overlap
     ethr =  2.47E-10,  avg # of iterations =  2.9

[...]

     negative rho (up, down):  2.686E-01 0.000E+00

     Adding external electric field

     Computed dipole along edir(3) :
        Dipole               -0.0348 Ry au,         -0.0885 Debye
        Dipole field         -0.0001 Ry au

        Potential amp.        0.0071 Ry
        Total length         46.2584 bohr

     End of self-consistent calculation

[...]

          k = 0.0533-0.0615 0.0000 ( 21571 PWs)   bands (ev):

[...]

          k =-0.0799-0.0462 0.0000 ( 21576 PWs)   bands (ev):

    -9.0346  -9.0161  -8.9373  -8.9211  -8.8902  -8.8785  -8.8443  -8.8398
    -8.8277  -8.8192  -8.8015  -8.7611  -8.7234  -8.7090  -8.7022  -8.6850
    -8.6778  -8.6751  -8.6591  -8.5908  -8.5603  -8.5542  -8.5323  -8.5136
    -8.4832  -8.4763  -8.4710  -8.4577  -8.4501  -8.4331  -8.4263  -8.4166
    -8.3566  -8.3454  -8.3294  -8.3289  -8.3029  -8.2906  -8.2851  -8.2670
    -8.2532  -8.2266  -8.2179  -8.2063  -8.2024  -8.1882  -8.1783  -8.1722
    -8.1540  -8.1298  -8.1200  -8.0932  -8.0804  -8.0571  -8.0253  -7.9917
    -7.9508  -7.9421  -7.9038  -7.9015  -5.9000  -5.8734  -4.8593  -4.4056
    -3.0885  -2.7211  -2.6048  -2.2619  -1.6475  -1.2993  -0.1530   0.5734
     0.8148   0.9857   2.3606   2.8550   2.8799   3.2106   3.2244   3.4686
     3.7157   3.7870

     the Fermi energy is     0.6139 ev

!    total energy              =   -1394.17548067 Ry
     Harris-Foulkes estimate   =   -1394.17547949 Ry
     estimated scf accuracy    <       0.00000006 Ry

     The total energy is the sum of the following terms:

     one-electron contribution =   -8358.07296481 Ry
     hartree contribution      =    4272.12004905 Ry
     xc contribution           =    -490.27588216 Ry
     ewald contribution        =    3182.08137185 Ry
     electric field correction =       0.00000266 Ry
     smearing contrib. (-TS)   =      -0.02805726 Ry

     convergence has been achieved in   8 iterations

 BEEF-vdW xc energy contributions
           1 :   -429.608936429934
           2 :    392.903300273077
           3 :   -331.019654495840
           4 :    261.625961208861
           5 :   -200.982885628154
           6 :    158.093727479982
           7 :   -133.017676759812
           8 :    119.476165477876
           9 :   -109.708922478560
          10 :    98.7141126471363
          11 :   -85.8428344098688
          12 :    73.5357399348596
          13 :   -64.6212501023965
          14 :    60.1120626924454
          15 :   -58.7158813649115
          16 :    57.9711597567218
          17 :   -55.9345405662821
          18 :    52.2289771035345
          19 :   -47.9104607850438
          20 :    44.4660373204033
          21 :   -42.7441214794221
          22 :    42.5040031987371
          23 :   -42.7417252652044
          24 :    42.4283240128524
          25 :   -41.1183365287565
          26 :    39.0868014825283
          27 :   -37.0163924316753
          28 :    35.5194546096620
          29 :   -34.8081938735743
          30 :    34.6627053657451
          31 :   -38.6719508994780
          32 :   -28.2009053190844

     Forces acting on atoms (Ry/au):

     negative rho (up, down):  2.686E-01 0.000E+00
     atom    1 type  1   force =    -0.00000060   -0.00198821   -0.01706117
     atom    2 type  1   force =    -0.00000000   -0.00050833   -0.01926584
     atom    3 type  1   force =     0.00090954    0.00093301   -0.01859883
     atom    4 type  1   force =    -0.00091206    0.00093131   -0.01859619
     atom    5 type  1   force =     0.00338284   -0.00342082    0.01829214
     atom    6 type  1   force =    -0.00338290   -0.00341439    0.01832107
     atom    7 type  1   force =     0.00000285    0.00224002    0.01437258
     atom    8 type  1   force =    -0.00000051    0.00316977    0.02399960
     atom    9 type  1   force =    -0.00140605    0.00109095    0.00009069
     atom   10 type  1   force =     0.00135054    0.00123627    0.00011758
     atom   11 type  1   force =     0.00014837   -0.00189911   -0.00186734
     atom   12 type  1   force =    -0.00010843    0.00118220   -0.00057202
     atom   13 type  2   force =     0.00001641    0.00044732    0.00076774

     Total force =     0.004023     Total SCF correction =     0.000542
     SCF correction compared to forces is large: reduce conv_thr to get better values

     entering subroutine stress ...

     negative rho (up, down):  2.686E-01 0.000E+00
          total   stress  (Ry/bohr**3)                   (kbar)     P=   -1.02
  -0.00003622  -0.00000002   0.00000000         -5.33     -0.00      0.00
  -0.00000002  -0.00001825   0.00000266         -0.00     -2.68      0.39
   0.00000000   0.00000266   0.00003361          0.00      0.39      4.94

     bfgs converged in  25 scf cycles and  24 bfgs steps
     (criteria: energy <  1.0E+00, force <  1.9E-03)

     End of BFGS Geometry Optimization

     Final energy   =   -1394.1754806682 Ry
Begin final coordinates

ATOMIC_POSITIONS (crystal)
Cd1      0.166666667   0.166666667   0.398302599    0   0   0
Cd1      0.666666667   0.166666667   0.398302599    0   0   0
Cd1      0.166666667   0.666666667   0.398302599    0   0   0
Cd1      0.666666667   0.666666667   0.398302599    0   0   0
Cd1      0.833333333   0.333333333   0.500000000    0   0   0
Cd1      0.333333333   0.333333333   0.500000000    0   0   0
Cd1      0.833333333   0.833333333   0.500000000    0   0   0
Cd1      0.333333333   0.833333333   0.500000000    0   0   0
Cd1     -0.006267887   0.000200321   0.620246491
Cd1      0.506293878   0.000074093   0.620272090
Cd1     -0.010861983   0.521451332   0.612536457
Cd1      0.507724797   0.484657737   0.608823393
H1       0.230361004   0.039338450   0.664238347
End final coordinates

     Writing output data file calc.save

     General routines

     Parallel routines

   This run was terminated on:  12:53:22  21Feb2018

   JOB DONE.