     Program PWSCF v.5.1rc2 (svn rev. 11289) starts on  3May2018 at  9:22: 9

     Current dimensions of program PWSCF are:
     Max number of different atomic species (ntypx) = 10
     Max number of k-points (npk) =  40000
     Max angular momentum in pseudopotentials (lmaxx) =  3
     Presently stress not available with electric field

     IMPORTANT: XC functional enforced from input :
     Exchange-correlation      = BEEF-VDW ( 1  4 27 13 2)
     Any further DFT definition will be discarded
     Please, verify this is what you really want

     Subspace diagonalization in iterative solution of the eigenvalue problem:
     a serial algorithm will be used

     bravais-lattice index     =            0
     lattice parameter (alat)  =       1.8897  a.u.
     unit-cell volume          =    5182.3421 (a.u.)^3
     number of atoms/cell      =           13
     number of atomic types    =            2
     number of electrons       =       161.00
     number of Kohn-Sham states=           90
     kinetic-energy cutoff     =      36.7493  Ry
     charge density cutoff     =     367.4932  Ry
     convergence threshold     =      1.0E-05
     mixing beta               =       0.3000
     number of iterations used =           10  plain     mixing
     Exchange-correlation      = BEEF-VDW ( 1  4 27 13 2)
     nstep                     =           50

     celldm(1)=   1.889726  celldm(2)=   0.000000  celldm(3)=   0.000000
     celldm(4)=   0.000000  celldm(5)=   0.000000  celldm(6)=   0.000000

     crystal axes: (cart. coord. in units of alat)
               a(1) = (   5.970602   0.000000   0.000000 )
               a(2) = (   2.985301   5.170693   0.000000 )
               a(3) = (   0.000000   0.000000  24.874976 )

     reciprocal axes: (cart. coord. in units 2 pi/alat)
               b(1) = (  0.167487 -0.096699  0.000000 )
               b(2) = (  0.000000  0.193398  0.000000 )
               b(3) = (  0.000000  0.000000  0.040201 )

     PseudoPot. # 1 for Nb read from file:
     /u/if/mamunm/psp/gbrv1.5pbe/Nb.UPF
     MD5 check sum: 573aab8a2fa660278ed4a62cd769473f
     Pseudo is Ultrasoft + core correction, Zval = 13.0
     Generated by new atomic code, or converted to UPF format
     Using radial grid of  887 points,  6 beta functions with:
                l(1) =   0
                l(2) =   0
                l(3) =   1
                l(4) =   1
                l(5) =   2
                l(6) =   2
     Q(r) pseudized with  6 coefficients,  rinner =    1.000   1.000   1.000
                                                       1.000   1.000

     PseudoPot. # 2 for N  read from file:
     /u/if/mamunm/psp/gbrv1.5pbe/N.UPF
     MD5 check sum: 95339753478d7afb44899504a8723017
     Pseudo is Ultrasoft + core correction, Zval =  5.0
     Generated by new atomic code, or converted to UPF format
     Using radial grid of  729 points,  4 beta functions with:
                l(1) =   0
                l(2) =   0
                l(3) =   1
                l(4) =   1
     Q(r) pseudized with  8 coefficients,  rinner =    0.900   0.900   0.900

     vdW kernel table read from file vdW_kernel_table
     MD5 check sum: 095c7af220d748ca6e76c0b4c6cfb241

     atomic species   valence    mass     pseudopotential
        Nb1           13.00    92.90637     Nb( 1.00)
        N1             5.00    14.00700     N ( 1.00)

     No symmetry found

   Cartesian axes

     site n.     atom                  positions (alat units)
         1           Nb1 tau(   1) = (   1.4926504   0.8617821  10.0000000  )
         2           Nb1 tau(   2) = (   4.4779512   0.8617821  10.0000000  )
         3           Nb1 tau(   3) = (   2.9853008   3.4471284  10.0000000  )
         4           Nb1 tau(   4) = (   5.9706016   3.4471284  10.0000000  )
         5           Nb1 tau(   5) = (   5.9706016   1.7235642  12.4374879  )
         6           Nb1 tau(   6) = (   2.9853008   1.7235642  12.4374879  )
         7           Nb1 tau(   7) = (   7.4632520   4.3089105  12.4374879  )
         8           Nb1 tau(   8) = (   4.4779512   4.3089105  12.4374879  )
         9           Nb1 tau(   9) = (   0.0000000   0.0000000  14.8749758  )
        10           Nb1 tau(  10) = (   2.9853008   0.0000000  14.8749758  )
        11           Nb1 tau(  11) = (   1.4926504   2.5853463  14.8749758  )
        12           Nb1 tau(  12) = (   4.4779512   2.5853463  14.8749758  )
        13           N1  tau(  13) = (   1.4926504   0.8617821  16.4024758  )

     number of k points=    20  Fermi-Dirac smearing, width (Ry)=  0.0110
                       cart. coord. in units 2pi/alat
        k(    1) = (   0.0000000   0.0000000   0.0000000), wk =   0.0555556
        k(    2) = (   0.0000000   0.0322329   0.0000000), wk =   0.1111111
        k(    3) = (   0.0000000   0.0644659   0.0000000), wk =   0.1111111
        k(    4) = (   0.0000000  -0.0966988   0.0000000), wk =   0.0555556
        k(    5) = (   0.0279146  -0.0161165   0.0000000), wk =   0.1111111
        k(    6) = (   0.0279146   0.0161165   0.0000000), wk =   0.1111111
        k(    7) = (   0.0279146   0.0483494   0.0000000), wk =   0.1111111
        k(    8) = (   0.0279146  -0.1128153   0.0000000), wk =   0.1111111
        k(    9) = (   0.0279146  -0.0805824   0.0000000), wk =   0.1111111
        k(   10) = (   0.0279146  -0.0483494   0.0000000), wk =   0.1111111
        k(   11) = (   0.0558291  -0.0322329   0.0000000), wk =   0.1111111
        k(   12) = (   0.0558291   0.0000000   0.0000000), wk =   0.1111111
        k(   13) = (   0.0558291   0.0322329   0.0000000), wk =   0.1111111
        k(   14) = (   0.0558291  -0.1289318   0.0000000), wk =   0.1111111
        k(   15) = (   0.0558291  -0.0966988   0.0000000), wk =   0.1111111
        k(   16) = (   0.0558291  -0.0644659   0.0000000), wk =   0.1111111
        k(   17) = (  -0.0837437   0.0483494   0.0000000), wk =   0.0555556
        k(   18) = (  -0.0837437   0.0805824   0.0000000), wk =   0.1111111
        k(   19) = (  -0.0837437   0.1128153   0.0000000), wk =   0.1111111
        k(   20) = (  -0.0837437  -0.0483494   0.0000000), wk =   0.0555556

     Largest allocated arrays     est. size (Mb)     dimensions
     Largest temporary arrays     est. size (Mb)     dimensions

     Initial potential from superposition of free atoms
     Check: negative starting charge=   -0.005224

     starting charge  160.96719, renormalised to  161.00000

     negative rho (up, down):  5.225E-03 0.000E+00

     *
     * You are using vdW-DF for exchange-correlation in this calculation.
     * Please cite the following three references that made this development
     * possible:
     *
     *   M. Dion, H. Rydberg, E. Schroder, D. C. Langreth, and
     *   B. I. Lundqvist, Phys. Rev. Lett. 92, 246401 (2004).
     *
     *   T. Thonhauser, V. R. Cooper, S. Li, A. Puzder, P. Hyldgaard, and
     *   D. C. Langreth, Phys. Rev. B 76, 125112 (2007).
     *
     *   G. Roman-Perez and J. M. Soler, Phys. Rev. Lett. 103, 096102 (2009).
     *
     *
     * If you are using vdW-DF2, please also cite:
     *
     *   K. Lee, E. D. Murray, L. Kong, B. I. Lundqvist, and
     *   D. C. Langreth, Phys. Rev. B 82, 081101(R) (2010).
     *
     *
     * If you are calculating the stress with vdW-DF, please also cite:
     *
     *   R. Sabatini, E. Kucukbenli, B. Kolb, T. Thonhauser, and
     *   S. de Gironcoli, J. Phys.: Condens. Matter 24, 424209 (2012).
     *

     Carrying out vdW-DF run using the following parameters:

     Nqs =      20    Nr_points =    1024   r_max =   100.000
     q_mesh =
               0.00001000     0.04494208     0.09755937     0.15916263
               0.23128650     0.31572767     0.41458969     0.53033537
               0.66584808     0.82450364     1.01025438     1.22772762
               1.48234092     1.78043706     2.12944203     2.53805004
               3.01644009     3.57652955     4.23227104     5.00000000

     Gradients computed in reciprocal space

     Adding external electric field

     Computed dipole along edir(3) :
        Dipole               -0.0075 Ry au,         -0.0192 Debye
        Dipole field         -0.0000 Ry au

        Potential amp.        0.0017 Ry
        Total length         45.8317 bohr

     Starting wfc are  160 randomized atomic wfcs

     Self-consistent Calculation

     iteration #  1     ecut=    36.75 Ry     beta=0.30
     Davidson diagonalization with overlap
     ethr =  1.00E-02,  avg # of iterations =  2.0

[...]

     total energy              =   -1440.14636136 Ry
     Harris-Foulkes estimate   =   -1443.14158240 Ry
     estimated scf accuracy    <       6.67608282 Ry

[...]

     End of self-consistent calculation

          k = 0.0000 0.0000 0.0000 ( 19435 PWs)   bands (ev):

   -53.5788 -53.4771 -53.4572 -53.4371 -53.4369 -53.3561 -53.3396 -53.3391
   -53.3383 -53.2681 -53.2676 -53.2235 -29.9879 -29.9879 -29.9759 -29.9176
   -29.8946 -29.8856 -29.8855 -29.8408 -29.8404 -29.8374 -29.5959 -29.4992
   -29.4624 -29.4623 -29.3775 -29.3770 -29.3757 -29.2977 -29.2873 -29.2872
   -29.1913 -29.1891 -29.1887 -29.1529 -29.1525 -29.1324 -29.0760 -29.0676
   -29.0676 -29.0634 -29.0553 -29.0550 -28.9736 -28.9736 -28.8864 -28.8864
   -10.9697  -3.7941  -2.5046  -2.0871  -2.0051  -2.0050  -1.9223  -1.6893
    -1.6739  -1.6738  -1.3685  -1.3010  -1.3009  -1.2115  -1.2115  -1.1616
    -0.4557  -0.4556  -0.1755   0.3788   0.3790   0.9560   1.1044   1.1264
     1.1264   1.2562   1.6913   1.7600   1.7600   1.9465   1.9895   1.9896
     2.0419   2.0421   2.0803   2.1061   2.1061   2.1283   2.3075   2.3076
     3.0252   3.0252

[...]

          k =-0.0837 0.0483 0.0000 ( 19524 PWs)   bands (ev):

[...]

     the Fermi energy is     1.6485 ev

!    total energy              =   -1442.50130654 Ry
     Harris-Foulkes estimate   =   -1442.50132357 Ry
     estimated scf accuracy    <       0.00000876 Ry

     The total energy is the sum of the following terms:

     one-electron contribution =  -11737.82450349 Ry
     hartree contribution      =    5861.83175751 Ry
     xc contribution           =    -233.55227952 Ry
     ewald contribution        =    4667.15711269 Ry
     electric field correction =       0.00024530 Ry
     smearing contrib. (-TS)   =      -0.11363903 Ry

     convergence has been achieved in  19 iterations

 BEEF-vdW xc energy contributions
           1 :   -200.210094498759
           2 :    181.938238370860
           3 :   -150.842462661297
           4 :    115.303170703044
           5 :   -83.3125487504499
           6 :    59.8210348892407
           7 :   -45.7336165980481
           8 :    38.6154596770514
           9 :   -34.5224552262399
          10 :    29.9742549648105
          11 :   -23.2551026927126
          12 :    14.6449927479927
          13 :   -5.73029209391484
          14 :   -1.72206211137279
          15 :    6.72158277488415
          16 :   -9.43497281872078
          17 :    10.8994185872674
          18 :   -12.3241127722385
          19 :    14.3928534978646
          20 :   -16.9454230320718
          21 :    19.1634860045635
          22 :   -20.1075156652189
          23 :    19.2687015333590
          24 :   -16.8394818128558
          25 :    13.5895019037343
          26 :   -10.4622113997919
          27 :    8.13038640848936
          28 :   -6.74341953243004
          29 :    5.96665502462247
          30 :   -5.26026789245685
          31 :   -23.1254047581491
          32 :   -17.4467704395670

     Forces acting on atoms (Ry/au):

     negative rho (up, down):  4.987E-03 0.000E+00
     atom    1 type  1   force =     0.00000155    0.00000705   -0.00610699
     atom    2 type  1   force =     0.00000003    0.00299204   -0.00392892
     atom    3 type  1   force =     0.00258308   -0.00150008   -0.00390703
     atom    4 type  1   force =    -0.00258507   -0.00150002   -0.00391517
     atom    5 type  1   force =     0.00204682   -0.00119005    0.00476689
     atom    6 type  1   force =    -0.00204787   -0.00118782    0.00476639
     atom    7 type  1   force =     0.00000257   -0.00000900    0.00288506
     atom    8 type  1   force =    -0.00000152    0.00237801    0.00475710
     atom    9 type  1   force =     0.02599351    0.01500883    0.07475760
     atom   10 type  1   force =    -0.02599184    0.01500681    0.07475782
     atom   11 type  1   force =    -0.00000005   -0.03001659    0.07475476
     atom   12 type  1   force =    -0.00000077    0.00000428   -0.02129958
     atom   13 type  2   force =    -0.00000044    0.00000656   -0.20228793

     Total force =     0.246663     Total SCF correction =     0.009947

     entering subroutine stress ...

     negative rho (up, down):  4.987E-03 0.000E+00
          total   stress  (Ry/bohr**3)                   (kbar)     P=  -25.25
  -0.00021101   0.00000000   0.00000000        -31.04      0.00      0.00
   0.00000000  -0.00021100  -0.00000000          0.00    -31.04     -0.00
   0.00000000  -0.00000000  -0.00009290          0.00     -0.00    -13.67

     BFGS Geometry Optimization

     number of scf cycles    =   1
     number of bfgs steps    =   0

     energy   new            =   -1442.5013065376 Ry

     new trust radius        =       0.2022879259 bohr
     new conv_thr            =       0.0000099958 Ry

ATOMIC_POSITIONS (crystal)
Nb1      0.166666667   0.166666667   0.402010442    0   0   0
Nb1      0.666666667   0.166666667   0.402010442    0   0   0
Nb1      0.166666667   0.666666667   0.402010442    0   0   0
Nb1      0.666666667   0.666666667   0.402010442    0   0   0
Nb1      0.833333333   0.333333333   0.500000000    0   0   0
Nb1      0.333333333   0.333333333   0.500000000    0   0   0
Nb1      0.833333333   0.833333333   0.500000000    0   0   0
Nb1      0.333333333   0.833333333   0.500000000    0   0   0
Nb1      0.001535802   0.001536029   0.599579912
Nb1      0.496928421   0.001535821   0.599579917
Nb1      0.001535969   0.496928053   0.599579852
Nb1      0.499999713   0.500000438   0.597536442
N1       0.166666292   0.166667338   0.655093286

     Writing output data file calc.save
     Check: negative starting charge=   -0.005224
     NEW-OLD atomic charge density approx. for the potential
     Check: negative starting charge=   -0.005204

[...]

     energy   old            =   -1442.5013065376 Ry
     energy   new            =   -1442.5574272301 Ry

     CASE: energy  _new < energy  _old

     WARNING: bfgs curvature condition failed, Theta= 0.969
     new trust radius        =       0.2225167185 bohr
     new conv_thr            =       0.0000001000 Ry

[...]

     Total force =     0.012871     Total SCF correction =     0.000124

[...]

     number of scf cycles    =  10
     number of bfgs steps    =   9

     energy   old            =   -1442.6364579373 Ry
     energy   new            =   -1442.6373332126 Ry

     CASE: energy  _new < energy  _old

     new trust radius        =       0.0723474694 bohr
     new conv_thr            =       0.0000001000 Ry

ATOMIC_POSITIONS (crystal)
Nb1      0.166666667   0.166666667   0.402010442    0   0   0
Nb1      0.666666667   0.166666667   0.402010442    0   0   0
Nb1      0.166666667   0.666666667   0.402010442    0   0   0
Nb1      0.666666667   0.666666667   0.402010442    0   0   0
Nb1      0.833333333   0.333333333   0.500000000    0   0   0
Nb1      0.333333333   0.333333333   0.500000000    0   0   0
Nb1      0.833333333   0.833333333   0.500000000    0   0   0
Nb1      0.333333333   0.833333333   0.500000000    0   0   0
Nb1     -0.001926947  -0.001926344   0.601487670
Nb1      0.503853114  -0.001926390   0.601487618
Nb1     -0.001926999   0.503853861   0.601487680
Nb1      0.499999312   0.500001021   0.587760020
N1       0.166666241   0.166667206   0.639891573

     Writing output data file calc.save
     Check: negative starting charge=   -0.005251
     NEW-OLD atomic charge density approx. for the potential
     Check: negative starting charge=   -0.005251

[...]

     Self-consistent Calculation

[...]

     total energy              =   -1442.63776403 Ry
     Harris-Foulkes estimate   =   -1442.63776403 Ry
     estimated scf accuracy    <       0.00000072 Ry

     iteration # 11     ecut=    36.75 Ry     beta=0.30
     Davidson diagonalization with overlap
     ethr =  4.46E-10,  avg # of iterations =  3.2

[...]

     negative rho (up, down):  5.054E-03 0.000E+00

     Adding external electric field

     Computed dipole along edir(3) :
        Dipole               -0.0854 Ry au,         -0.2171 Debye
        Dipole field         -0.0002 Ry au

        Potential amp.        0.0190 Ry
        Total length         45.8317 bohr

     End of self-consistent calculation

[...]

          k = 0.0558-0.0645 0.0000 ( 19505 PWs)   bands (ev):

[...]

          k =-0.0837-0.0483 0.0000 ( 19524 PWs)   bands (ev):

   -53.2646 -53.2357 -53.1958 -53.1513 -53.1413 -53.0815 -53.0707 -53.0698
   -53.0299 -52.9871 -52.9791 -52.9521 -29.6980 -29.5814 -29.5340 -29.5212
   -29.4786 -29.4725 -29.4476 -29.3989 -29.3943 -29.3556 -29.3463 -29.2997
   -29.2749 -29.2689 -29.2160 -29.1625 -29.1560 -29.1258 -29.1112 -29.0975
   -29.0359 -29.0064 -29.0043 -28.9862 -28.9573 -28.9563 -28.9301 -28.8962
   -28.8356 -28.8181 -28.8180 -28.7752 -28.7751 -28.6956 -28.6809 -28.6731
   -12.0598  -2.8932  -2.2357  -2.0992  -1.8892  -1.8148  -1.0631  -0.8379
    -0.7233  -0.6257  -0.5801  -0.5364  -0.4927  -0.1171  -0.0232   0.1080
     0.1370   0.1591   0.3173   0.4086   0.6128   0.8054   0.8285   0.8528
     0.8610   1.0022   1.1479   1.3887   1.3927   1.4730   1.5471   1.5808
     1.6183   1.7079   1.8646   2.0339   2.0693   2.1243   2.3759   2.5694
     2.6550   3.0014

     the Fermi energy is     1.9074 ev

!    total energy              =   -1442.63776411 Ry
     Harris-Foulkes estimate   =   -1442.63776431 Ry
     estimated scf accuracy    <       0.00000006 Ry

     The total energy is the sum of the following terms:

     one-electron contribution =  -11841.42651322 Ry
     hartree contribution      =    5914.79709806 Ry
     xc contribution           =    -233.92742643 Ry
     ewald contribution        =    4718.02786907 Ry
     electric field correction =       0.00001769 Ry
     smearing contrib. (-TS)   =      -0.10880928 Ry

     convergence has been achieved in  11 iterations

 BEEF-vdW xc energy contributions
           1 :   -200.590351450678
           2 :    182.417517591515
           3 :   -151.423531923763
           4 :    115.889300662468
           5 :   -83.7722882475550
           6 :    60.0518733547025
           7 :   -45.6977484486389
           8 :    38.3473681203286
           9 :   -34.1147449674082
          10 :    29.5474768852571
          11 :   -22.9192062837797
          12 :    14.4629535822027
          13 :   -5.69891921401631
          14 :   -1.66246649803821
          15 :    6.65383249779711
          16 :   -9.42596928745593
          17 :    10.9733027688059
          18 :   -12.4577260728798
          19 :    14.5331393212585
          20 :   -17.0397010278418
          21 :    19.1881446856996
          22 :   -20.0818592438185
          23 :    19.2464402494960
          24 :   -16.8816454043303
          25 :    13.7311453652703
          26 :   -10.6903759989260
          27 :    8.38595637646918
          28 :   -6.94828982660368
          29 :    6.06311363088651
          30 :   -5.23885210262068
          31 :   -23.1481608841333
          32 :   -17.4894181322699

     Forces acting on atoms (Ry/au):

     negative rho (up, down):  5.054E-03 0.000E+00
     atom    1 type  1   force =     0.00000005   -0.00000018   -0.00102679
     atom    2 type  1   force =    -0.00000005    0.00101104   -0.00510467
     atom    3 type  1   force =     0.00087571   -0.00050583   -0.00510524
     atom    4 type  1   force =    -0.00087588   -0.00050571   -0.00510571
     atom    5 type  1   force =     0.02509433   -0.01448762   -0.00181286
     atom    6 type  1   force =    -0.02509440   -0.01448772   -0.00181317
     atom    7 type  1   force =     0.00000005   -0.00000055    0.02178977
     atom    8 type  1   force =     0.00000009    0.02897568   -0.00181341
     atom    9 type  1   force =     0.00120393    0.00069519   -0.00034206
     atom   10 type  1   force =    -0.00120401    0.00069496   -0.00034151
     atom   11 type  1   force =    -0.00000014   -0.00138981   -0.00034199
     atom   12 type  1   force =     0.00000017    0.00000060    0.00052833
     atom   13 type  2   force =     0.00000015   -0.00000004    0.00048931

     Total force =     0.002582     Total SCF correction =     0.000652
     SCF correction compared to forces is large: reduce conv_thr to get better values

     entering subroutine stress ...

     negative rho (up, down):  5.054E-03 0.000E+00
          total   stress  (Ry/bohr**3)                   (kbar)     P=  -12.41
  -0.00013261  -0.00000000  -0.00000000        -19.51     -0.00     -0.00
  -0.00000000  -0.00013261   0.00000000         -0.00    -19.51      0.00
  -0.00000000   0.00000000   0.00001223         -0.00      0.00      1.80

     bfgs converged in  11 scf cycles and  10 bfgs steps
     (criteria: energy <  1.0E+00, force <  1.9E-03)

     End of BFGS Geometry Optimization

     Final energy   =   -1442.6377641085 Ry
Begin final coordinates

ATOMIC_POSITIONS (crystal)
Nb1      0.166666667   0.166666667   0.402010442    0   0   0
Nb1      0.666666667   0.166666667   0.402010442    0   0   0
Nb1      0.166666667   0.666666667   0.402010442    0   0   0
Nb1      0.666666667   0.666666667   0.402010442    0   0   0
Nb1      0.833333333   0.333333333   0.500000000    0   0   0
Nb1      0.333333333   0.333333333   0.500000000    0   0   0
Nb1      0.833333333   0.833333333   0.500000000    0   0   0
Nb1      0.333333333   0.833333333   0.500000000    0   0   0
Nb1     -0.001926947  -0.001926344   0.601487670
Nb1      0.503853114  -0.001926390   0.601487618
Nb1     -0.001926999   0.503853861   0.601487680
Nb1      0.499999312   0.500001021   0.587760020
N1       0.166666241   0.166667206   0.639891573
End final coordinates

     Writing output data file calc.save

     General routines

     Parallel routines

   This run was terminated on:  10:43: 4   3May2018

   JOB DONE.
Job  /afs/slac/g/suncat/bin/suncat-tsmpirun -x LD_LIBRARY_PATH -wdir /scratch/qe707094_UB7Oy pw.x -npool 4 -in pw.inp

TID   HOST_NAME   COMMAND_LINE            STATUS            TERMINATION_TIME
00000 suncat0072 pw.x -npool 4 -i  Done                     05/03/2018 10:43:04
00001 suncat0072 pw.x -npool 4 -i  Done                     05/03/2018 10:43:04
00002 suncat0072 pw.x -npool 4 -i  Done                     05/03/2018 10:43:04
00003 suncat0072 pw.x -npool 4 -i  Done                     05/03/2018 10:43:04
00004 suncat0072 pw.x -npool 4 -i  Done                     05/03/2018 10:43:04
00005 suncat0072 pw.x -npool 4 -i  Done                     05/03/2018 10:43:04
00006 suncat0072 pw.x -npool 4 -i  Done                     05/03/2018 10:43:04
00007 suncat0072 pw.x -npool 4 -i  Done                     05/03/2018 10:43:04
00008 suncat0070 pw.x -npool 4 -i  Done                     05/03/2018 10:43:04
00009 suncat0070 pw.x -npool 4 -i  Done                     05/03/2018 10:43:04
00010 suncat0070 pw.x -npool 4 -i  Done                     05/03/2018 10:43:04
00011 suncat0070 pw.x -npool 4 -i  Done                     05/03/2018 10:43:04
00012 suncat0070 pw.x -npool 4 -i  Done                     05/03/2018 10:43:04
00013 suncat0070 pw.x -npool 4 -i  Done                     05/03/2018 10:43:04
00014 suncat0070 pw.x -npool 4 -i  Done                     05/03/2018 10:43:04
00015 suncat0070 pw.x -npool 4 -i  Done                     05/03/2018 10:43:04
00016 suncat0153 pw.x -npool 4 -i  Done                     05/03/2018 10:43:04
00017 suncat0153 pw.x -npool 4 -i  Done                     05/03/2018 10:43:04
00018 suncat0153 pw.x -npool 4 -i  Done                     05/03/2018 10:43:04
00019 suncat0153 pw.x -npool 4 -i  Done                     05/03/2018 10:43:04
00020 suncat0153 pw.x -npool 4 -i  Done                     05/03/2018 10:43:04
00021 suncat0153 pw.x -npool 4 -i  Done                     05/03/2018 10:43:04
00022 suncat0153 pw.x -npool 4 -i  Done                     05/03/2018 10:43:04
00023 suncat0153 pw.x -npool 4 -i  Done                     05/03/2018 10:43:04
00024 suncat0252 pw.x -npool 4 -i  Done                     05/03/2018 10:43:04
00025 suncat0252 pw.x -npool 4 -i  Done                     05/03/2018 10:43:04
00026 suncat0252 pw.x -npool 4 -i  Done                     05/03/2018 10:43:04
00027 suncat0252 pw.x -npool 4 -i  Done                     05/03/2018 10:43:04
00028 suncat0252 pw.x -npool 4 -i  Done                     05/03/2018 10:43:04
00029 suncat0252 pw.x -npool 4 -i  Done                     05/03/2018 10:43:04
00030 suncat0252 pw.x -npool 4 -i  Done                     05/03/2018 10:43:04
00031 suncat0252 pw.x -npool 4 -i  Done                     05/03/2018 10:43:04