     Program PWSCF v.5.1rc2 (svn rev. ) starts on 18Apr2018 at  4:10:42

     Current dimensions of program PWSCF are:
     Max number of different atomic species (ntypx) = 10
     Max number of k-points (npk) =  40000
     Max angular momentum in pseudopotentials (lmaxx) =  3
     Presently stress not available with electric field

     IMPORTANT: XC functional enforced from input :
     Exchange-correlation      = BEEF-VDW ( 1  4 27 13 2)
     Any further DFT definition will be discarded
     Please, verify this is what you really want

     Subspace diagonalization in iterative solution of the eigenvalue problem:
     a serial algorithm will be used

     bravais-lattice index     =            0
     lattice parameter (alat)  =       1.8897  a.u.
     unit-cell volume          =    6024.3322 (a.u.)^3
     number of atoms/cell      =           16
     number of atomic types    =            3
     number of electrons       =       151.00
     number of Kohn-Sham states=           85
     kinetic-energy cutoff     =      36.7493  Ry
     charge density cutoff     =     367.4932  Ry
     convergence threshold     =      1.0E-05
     mixing beta               =       0.3000
     number of iterations used =           10  plain     mixing
     Exchange-correlation      = BEEF-VDW ( 1  4 27 13 2)
     nstep                     =           50

     celldm(1)=   1.889726  celldm(2)=   0.000000  celldm(3)=   0.000000
     celldm(4)=   0.000000  celldm(5)=   0.000000  celldm(6)=   0.000000

     crystal axes: (cart. coord. in units of alat)
               a(1) = (   6.393197   0.000000   0.000000 )
               a(2) = (   3.196599   5.536671   0.000000 )
               a(3) = (   0.000000   0.000000  25.220024 )

     reciprocal axes: (cart. coord. in units 2 pi/alat)
               b(1) = (  0.156416 -0.090307  0.000000 )
               b(2) = (  0.000000  0.180614  0.000000 )
               b(3) = (  0.000000  0.000000  0.039651 )

     PseudoPot. # 1 for Hf read from file:
     /home/mamunm/src/pseudo/gbrv1.5pbe/Hf.UPF
     MD5 check sum: 8ee9378dfe14276e333edf04c5e4aa26
     Pseudo is Ultrasoft + core correction, Zval = 12.0
     Generated by new atomic code, or converted to UPF format
     Using radial grid of  921 points,  8 beta functions with:
                l(1) =   0
                l(2) =   0
                l(3) =   0
                l(4) =   1
                l(5) =   1
                l(6) =   2
                l(7) =   2
                l(8) =   3
     Q(r) pseudized with  6 coefficients,  rinner =    1.200   1.200   1.200
                                                       1.200   1.200   1.200
                                                       1.200

     PseudoPot. # 2 for C  read from file:
     /home/mamunm/src/pseudo/gbrv1.5pbe/C.UPF
     MD5 check sum: d1aef80898a10debaa0f26306b886e00
     Pseudo is Ultrasoft + core correction, Zval =  4.0
     Generated by new atomic code, or converted to UPF format
     Using radial grid of  721 points,  4 beta functions with:
                l(1) =   0
                l(2) =   0
                l(3) =   1
                l(4) =   1
     Q(r) pseudized with  8 coefficients,  rinner =    1.100   1.100   1.100

     PseudoPot. # 3 for H  read from file:
     /home/mamunm/src/pseudo/gbrv1.5pbe/H.UPF
     MD5 check sum: 761ae9a214b05c3daf00ab9f6b793d6f
     Pseudo is Ultrasoft, Zval =  1.0
     Generated by new atomic code, or converted to UPF format
     Using radial grid of  615 points,  2 beta functions with:
                l(1) =   0
                l(2) =   0
     Q(r) pseudized with  8 coefficients,  rinner =    0.700

     vdW kernel table read from file vdW_kernel_table
     MD5 check sum: 095c7af220d748ca6e76c0b4c6cfb241

     atomic species   valence    mass     pseudopotential
        Hf1           12.00   178.49000     Hf( 1.00)
        C1             4.00    12.01100     C ( 1.00)
        H1             1.00     1.00800     H ( 1.00)

     No symmetry found

   Cartesian axes

     site n.     atom                  positions (alat units)
         1           Hf1 tau(   1) = (   1.5982993   0.9227785  10.0000000  )
         2           Hf1 tau(   2) = (   4.7948978   0.9227785  10.0000000  )
         3           Hf1 tau(   3) = (   3.1965986   3.6911141  10.0000000  )
         4           Hf1 tau(   4) = (   6.3931971   3.6911141  10.0000000  )
         5           Hf1 tau(   5) = (   6.3931971   1.8455570  12.6100118  )
         6           Hf1 tau(   6) = (   3.1965986   1.8455570  12.6100118  )
         7           Hf1 tau(   7) = (   7.9914964   4.6138926  12.6100118  )
         8           Hf1 tau(   8) = (   4.7948978   4.6138926  12.6100118  )
         9           Hf1 tau(   9) = (   0.0000000   0.0000000  15.2200236  )
        10           Hf1 tau(  10) = (   3.1965986   0.0000000  15.2200236  )
        11           Hf1 tau(  11) = (   1.5982993   2.7683356  15.2200236  )
        12           Hf1 tau(  12) = (   4.7948978   2.7683356  15.2200236  )
        13           C1  tau(  13) = (   1.5982993   0.9227785  16.8515236  )
        14           H1  tau(  14) = (   2.6882993   0.9227785  17.4815236  )
        15           H1  tau(  15) = (   1.1482993   1.8122785  17.4815236  )
        16           H1  tau(  16) = (   1.1482993   0.0332785  17.4815236  )

     number of k points=    20  Fermi-Dirac smearing, width (Ry)=  0.0110
                       cart. coord. in units 2pi/alat
        k(    1) = (   0.0000000   0.0000000   0.0000000), wk =   0.0555556
        k(    2) = (   0.0000000   0.0301023   0.0000000), wk =   0.1111111
        k(    3) = (   0.0000000   0.0602046   0.0000000), wk =   0.1111111
        k(    4) = (   0.0000000  -0.0903070   0.0000000), wk =   0.0555556
        k(    5) = (   0.0260694  -0.0150512   0.0000000), wk =   0.1111111
        k(    6) = (   0.0260694   0.0150512   0.0000000), wk =   0.1111111
        k(    7) = (   0.0260694   0.0451535   0.0000000), wk =   0.1111111
        k(    8) = (   0.0260694  -0.1053581   0.0000000), wk =   0.1111111
        k(    9) = (   0.0260694  -0.0752558   0.0000000), wk =   0.1111111
        k(   10) = (   0.0260694  -0.0451535   0.0000000), wk =   0.1111111
        k(   11) = (   0.0521388  -0.0301023   0.0000000), wk =   0.1111111
        k(   12) = (   0.0521388   0.0000000   0.0000000), wk =   0.1111111
        k(   13) = (   0.0521388   0.0301023   0.0000000), wk =   0.1111111
        k(   14) = (   0.0521388  -0.1204093   0.0000000), wk =   0.1111111
        k(   15) = (   0.0521388  -0.0903070   0.0000000), wk =   0.1111111
        k(   16) = (   0.0521388  -0.0602046   0.0000000), wk =   0.1111111
        k(   17) = (  -0.0782081   0.0451535   0.0000000), wk =   0.0555556
        k(   18) = (  -0.0782081   0.0752558   0.0000000), wk =   0.1111111
        k(   19) = (  -0.0782081   0.1053581   0.0000000), wk =   0.1111111
        k(   20) = (  -0.0782081  -0.0451535   0.0000000), wk =   0.0555556

     Largest allocated arrays     est. size (Mb)     dimensions
     Largest temporary arrays     est. size (Mb)     dimensions

     Check: negative/imaginary core charge=   -0.000003    0.000000

     Initial potential from superposition of free atoms
     Check: negative starting charge=   -1.301256

     starting charge  126.99991, renormalised to  151.00000

     negative rho (up, down):  1.547E+00 0.000E+00

     *
     * You are using vdW-DF for exchange-correlation in this calculation.
     * Please cite the following three references that made this development
     * possible:
     *
     *   M. Dion, H. Rydberg, E. Schroder, D. C. Langreth, and
     *   B. I. Lundqvist, Phys. Rev. Lett. 92, 246401 (2004).
     *
     *   T. Thonhauser, V. R. Cooper, S. Li, A. Puzder, P. Hyldgaard, and
     *   D. C. Langreth, Phys. Rev. B 76, 125112 (2007).
     *
     *   G. Roman-Perez and J. M. Soler, Phys. Rev. Lett. 103, 096102 (2009).
     *
     *
     * If you are using vdW-DF2, please also cite:
     *
     *   K. Lee, E. D. Murray, L. Kong, B. I. Lundqvist, and
     *   D. C. Langreth, Phys. Rev. B 82, 081101(R) (2010).
     *
     *
     * If you are calculating the stress with vdW-DF, please also cite:
     *
     *   R. Sabatini, E. Kucukbenli, B. Kolb, T. Thonhauser, and
     *   S. de Gironcoli, J. Phys.: Condens. Matter 24, 424209 (2012).
     *

     Carrying out vdW-DF run using the following parameters:

     Nqs =      20    Nr_points =    1024   r_max =   100.000
     q_mesh =
               0.00001000     0.04494208     0.09755937     0.15916263
               0.23128650     0.31572767     0.41458969     0.53033537
               0.66584808     0.82450364     1.01025438     1.22772762
               1.48234092     1.78043706     2.12944203     2.53805004
               3.01644009     3.57652955     4.23227104     5.00000000

     Gradients computed in reciprocal space

     Adding external electric field

     Computed dipole along edir(3) :
        Dipole              -11.2772 Ry au,        -28.6638 Debye
        Dipole field         -0.0235 Ry au

        Potential amp.        2.1862 Ry
        Total length         46.4675 bohr

     Starting wfc are  163 randomized atomic wfcs

     Self-consistent Calculation

     iteration #  1     ecut=    36.75 Ry     beta=0.30
     Davidson diagonalization with overlap
     ethr =  1.00E-02,  avg # of iterations =  9.8

[...]

     total energy              =   -1209.84046567 Ry
     Harris-Foulkes estimate   =   -1932.04531061 Ry
     estimated scf accuracy    <    1549.65123174 Ry

[...]

     iteration # 24     ecut=    36.75 Ry     beta=0.30
     Davidson diagonalization with overlap
     c_bands:  1 eigenvalues not converged
     ethr =  3.08E-05,  avg # of iterations =  3.7

[...]

     End of self-consistent calculation

          k = 0.0000 0.0000 0.0000 ( 22729 PWs)   bands (ev):

   -60.8497 -60.8368 -60.8164 -60.8153 -60.8145 -60.7959 -60.7763 -60.7693
   -60.4257 -60.3983 -60.3981 -60.3318 -29.6054 -29.6043 -29.6023 -29.5727
   -29.5690 -29.5650 -29.5307 -29.4461 -29.4357 -29.4304 -29.4281 -29.3619
   -29.3548 -29.3497 -29.1890 -29.1888 -29.1886 -29.1645 -29.1607 -29.1411
   -29.1290 -29.1099 -29.1090 -29.0605 -29.0604 -29.0247 -29.0235 -28.8843
   -28.8779 -28.8776 -28.7980 -28.7863 -28.7720 -28.7719 -28.6492 -28.6492
   -12.0025  -5.1036  -4.7764  -4.6870  -3.8042  -2.7847  -1.9279  -1.2236
    -1.2211  -1.0799  -0.9356  -0.9203  -0.9156  -0.4821  -0.4717  -0.2762
     0.0992   0.1000   0.3128   0.8559   0.8658   1.3009   1.7709   1.8543
     1.9790   2.0214   2.0970   2.2080   2.2409   2.2438   2.5079   2.6856
     2.8763   2.8823   3.0395   3.0430   3.0537

[...]

          k =-0.0782 0.0452 0.0000 ( 22668 PWs)   bands (ev):

[...]

     the Fermi energy is     1.7833 ev

!    total energy              =   -1941.87425387 Ry
     Harris-Foulkes estimate   =   -1941.87424010 Ry
     estimated scf accuracy    <       0.00000527 Ry

     The total energy is the sum of the following terms:

     one-electron contribution =   -8598.49633130 Ry
     hartree contribution      =    4285.96606312 Ry
     xc contribution           =    -933.64052566 Ry
     ewald contribution        =    3304.41595275 Ry
     electric field correction =       0.00018944 Ry
     smearing contrib. (-TS)   =      -0.11960222 Ry

     convergence has been achieved in  33 iterations

 BEEF-vdW xc energy contributions
           1 :   -843.955937904684
           2 :    784.230615977705
           3 :   -678.455420035031
           4 :    548.560109355189
           5 :   -417.178999301298
           6 :    301.312005203268
           7 :   -209.557489970817
           8 :    143.028562825712
           9 :   -98.4327465398217
          10 :    71.0987206200457
          11 :   -56.5565001129285
          12 :    50.5915486967441
          13 :   -48.7824119223482
          14 :    46.5584140143148
          15 :   -40.1400163464159
          16 :    27.8199066984821
          17 :   -10.6972098678216
          18 :   -7.75762771741142
          19 :    23.1906464540965
          20 :   -32.1843170343946
          21 :    33.5109041361840
          22 :   -28.3112862640412
          23 :    19.2927511989391
          24 :   -9.53257821150430
          25 :    1.52345481218697
          26 :    3.20572376965470
          27 :   -4.00785334850752
          28 :   0.918367869871872
          29 :    5.39004499015346
          30 :   -13.5264424653271
          31 :   -60.8999737003148
          32 :   -43.7912383993390

     Forces acting on atoms (Ry/au):

     negative rho (up, down):  1.380E+00 0.000E+00
     atom    1 type  1   force =    -0.00003424   -0.00002161    0.02481368
     atom    2 type  1   force =     0.00018442    0.00132192    0.02531474
     atom    3 type  1   force =     0.00107969   -0.00070782    0.02534174
     atom    4 type  1   force =    -0.00116661   -0.00056221    0.02526862
     atom    5 type  1   force =     0.00179067   -0.00015786   -0.00281358
     atom    6 type  1   force =    -0.00123824   -0.00137631   -0.00288383
     atom    7 type  1   force =     0.00025343   -0.00012443    0.00154581
     atom    8 type  1   force =    -0.00107619    0.00149621   -0.00297256
     atom    9 type  1   force =    -0.01452159   -0.01069266   -0.02048855
     atom   10 type  1   force =     0.01708912   -0.00623265   -0.01681388
     atom   11 type  1   force =    -0.00390009    0.01646470   -0.01963601
     atom   12 type  1   force =     0.00150549   -0.00020270   -0.03954901
     atom   13 type  2   force =     0.04158466    0.00104517    0.15826870
     atom   14 type  3   force =    -0.06984124   -0.00732274   -0.06608169
     atom   15 type  3   force =     0.02007014   -0.03605317   -0.04415862
     atom   16 type  3   force =     0.00822059    0.04312616   -0.04515558

     Total force =     0.217471     Total SCF correction =     0.002990

     entering subroutine stress ...

     negative rho (up, down):  1.380E+00 0.000E+00
          total   stress  (Ry/bohr**3)                   (kbar)     P=  -26.92
  -0.00017253  -0.00000015  -0.00000809        -25.38     -0.02     -1.19
  -0.00000015  -0.00016755   0.00000040         -0.02    -24.65      0.06
  -0.00000809   0.00000040  -0.00020892         -1.19      0.06    -30.73

     BFGS Geometry Optimization

     number of scf cycles    =   1
     number of bfgs steps    =   0

     energy   new            =   -1941.8742538706 Ry

     new trust radius        =       0.1636439998 bohr
     new conv_thr            =       0.0000099958 Ry

ATOMIC_POSITIONS (crystal)
Hf1      0.166666667   0.166666667   0.396510335    0   0   0
Hf1      0.666666667   0.166666667   0.396510335    0   0   0
Hf1      0.166666667   0.666666667   0.396510335    0   0   0
Hf1      0.666666667   0.666666667   0.396510335    0   0   0
Hf1      0.833333333   0.333333333   0.500000000    0   0   0
Hf1      0.333333333   0.333333333   0.500000000    0   0   0
Hf1      0.833333333   0.833333333   0.500000000    0   0   0
Hf1      0.333333333   0.833333333   0.500000000    0   0   0
Hf1     -0.000690995  -0.001021970   0.603059766
Hf1      0.501712348  -0.000595697   0.603136869
Hf1     -0.001109639   0.501573643   0.603077654
Hf1      0.500134299   0.499980627   0.602659831
C1       0.170058761   0.166766561   0.671501187
H1       0.331729441   0.165966783   0.691773924
H1       0.019335465   0.323876923   0.692233923
H1       0.175226903   0.010132424   0.692213004

     Writing output data file calc.save
     Check: negative starting charge=   -1.301256
     NEW-OLD atomic charge density approx. for the potential

     Check: negative/imaginary core charge=   -0.000003    0.000000
     Check: negative starting charge=   -1.300631

[...]

     energy   old            =   -1941.8742538706 Ry
     energy   new            =   -1941.9068999833 Ry

     CASE: energy  _new < energy  _old

[...]

     iteration #  1     ecut=    36.75 Ry     beta=0.30
     Davidson diagonalization with overlap
     c_bands:  1 eigenvalues not converged
     c_bands:  1 eigenvalues not converged
     ethr =  1.00E-06,  avg # of iterations = 15.9

[...]

     WARNING: bfgs curvature condition failed, Theta= 0.926
     new trust radius        =       0.0124012665 bohr
     new conv_thr            =       0.0000001000 Ry

[...]

     Total force =     0.007393     Total SCF correction =     0.001224
     SCF correction compared to forces is large: reduce conv_thr to get better values

[...]

     Total force =     0.005558     Total SCF correction =     0.000164

[...]

     number of scf cycles    =  30
     number of bfgs steps    =  29

     energy   old            =   -1941.9329921861 Ry
     energy   new            =   -1941.9331473983 Ry

     CASE: energy  _new < energy  _old

     new trust radius        =       0.0302276553 bohr
     new conv_thr            =       0.0000001000 Ry

ATOMIC_POSITIONS (crystal)
Hf1      0.166666667   0.166666667   0.396510335    0   0   0
Hf1      0.666666667   0.166666667   0.396510335    0   0   0
Hf1      0.166666667   0.666666667   0.396510335    0   0   0
Hf1      0.666666667   0.666666667   0.396510335    0   0   0
Hf1      0.833333333   0.333333333   0.500000000    0   0   0
Hf1      0.333333333   0.333333333   0.500000000    0   0   0
Hf1      0.833333333   0.833333333   0.500000000    0   0   0
Hf1      0.333333333   0.833333333   0.500000000    0   0   0
Hf1     -0.003297975  -0.002628764   0.597634245
Hf1      0.504287871  -0.002588303   0.597671521
Hf1     -0.003585783   0.505068278   0.597645472
Hf1      0.499718299   0.499618765   0.594786860
C1       0.166428098   0.166632644   0.666363677
H1       0.346718786   0.075306701   0.685523035
H1       0.077461296   0.347321662   0.685412668
H1       0.075177213   0.077611873   0.685571821

     Writing output data file calc.save
     Check: negative starting charge=   -1.298269
     NEW-OLD atomic charge density approx. for the potential

     Check: negative/imaginary core charge=   -0.000003    0.000000
     Check: negative starting charge=   -1.298528

[...]

     Self-consistent Calculation

[...]

     total energy              =   -1941.93321571 Ry
     Harris-Foulkes estimate   =   -1941.93321572 Ry
     estimated scf accuracy    <       0.00000022 Ry

     iteration # 10     ecut=    36.75 Ry     beta=0.30
     Davidson diagonalization with overlap
     ethr =  1.47E-10,  avg # of iterations =  5.2

[...]

     negative rho (up, down):  1.375E+00 0.000E+00

     Adding external electric field

     Computed dipole along edir(3) :
        Dipole                0.2241 Ry au,          0.5696 Debye
        Dipole field          0.0005 Ry au

        Potential amp.       -0.0434 Ry
        Total length         46.4675 bohr

     End of self-consistent calculation

[...]

          k = 0.0521-0.0602 0.0000 ( 22643 PWs)   bands (ev):

[...]

          k =-0.0782-0.0452 0.0000 ( 22668 PWs)   bands (ev):

   -60.9144 -60.9106 -60.8961 -60.8935 -60.7583 -60.7515 -60.7395 -60.7230
   -60.3629 -60.3565 -60.3463 -60.2750 -29.5812 -29.5768 -29.5302 -29.5265
   -29.4704 -29.4671 -29.4656 -29.4654 -29.4436 -29.4390 -29.4022 -29.4008
   -29.3933 -29.3918 -29.3593 -29.3582 -29.2996 -29.2785 -29.2522 -29.2377
   -29.2041 -29.2005 -29.0720 -29.0569 -28.9919 -28.9777 -28.8774 -28.8668
   -28.8484 -28.8227 -28.8192 -28.8033 -28.7924 -28.7343 -28.6904 -28.6555
   -12.3084  -5.4323  -5.3617  -3.3570  -3.1760  -2.6323  -1.9113  -1.4898
    -0.9561  -0.9536  -0.6342  -0.4322  -0.3444  -0.2795   0.4861   0.5611
     0.6406   0.6858   0.8255   0.8462   1.0253   1.0291   1.1847   1.2278
     1.2318   1.2707   1.4361   1.4754   1.5621   1.6515   1.6732   1.8277
     1.9106   2.0837   2.0921   2.4529   2.6273

     the Fermi energy is     1.6999 ev

!    total energy              =   -1941.93321572 Ry
     Harris-Foulkes estimate   =   -1941.93321618 Ry
     estimated scf accuracy    <       0.00000008 Ry

     The total energy is the sum of the following terms:

     one-electron contribution =   -8806.27705558 Ry
     hartree contribution      =    4389.89252480 Ry
     xc contribution           =    -934.07311222 Ry
     ewald contribution        =    3408.63919055 Ry
     electric field correction =       0.00010474 Ry
     smearing contrib. (-TS)   =      -0.11486801 Ry

     convergence has been achieved in  10 iterations

 BEEF-vdW xc energy contributions
           1 :   -844.366117625424
           2 :    784.686298114371
           3 :   -678.937225317921
           4 :    548.968994416252
           5 :   -417.395827446568
           6 :    301.295204852916
           7 :   -209.392217954381
           8 :    142.879838833966
           9 :   -98.4352381825281
          10 :    71.2689043767577
          11 :   -56.7900619567444
          12 :    50.7446837182631
          13 :   -48.7743239637452
          14 :    46.4219807412996
          15 :   -39.9890985397358
          16 :    27.7633561528971
          17 :   -10.7615674900956
          18 :   -7.64475122562612
          19 :    23.1471804716327
          20 :   -32.2868821980846
          21 :    33.7357081415460
          22 :   -28.5450040014332
          23 :    19.4080465576640
          24 :   -9.47645238085806
          25 :    1.35564191327956
          26 :    3.35471542597054
          27 :   -4.03126549825311
          28 :   0.810725335370080
          29 :    5.53192960840852
          30 :   -13.5817432122521
          31 :   -60.9285597673304
          32 :   -43.8239311171988

     Forces acting on atoms (Ry/au):

     negative rho (up, down):  1.375E+00 0.000E+00
     atom    1 type  1   force =    -0.00000665   -0.00001895    0.01747415
     atom    2 type  1   force =    -0.00002681    0.00142468    0.01931072
     atom    3 type  1   force =     0.00123312   -0.00072348    0.01930840
     atom    4 type  1   force =    -0.00126760   -0.00072574    0.01926372
     atom    5 type  1   force =     0.00476468   -0.00303650   -0.01859448
     atom    6 type  1   force =    -0.00539706   -0.00292350   -0.01828177
     atom    7 type  1   force =    -0.00042237    0.00001415   -0.02040669
     atom    8 type  1   force =    -0.00021558    0.00568340   -0.01828335
     atom    9 type  1   force =     0.00064724    0.00018229   -0.00023461
     atom   10 type  1   force =     0.00025552    0.00002933   -0.00055840
     atom   11 type  1   force =     0.00070663   -0.00021318   -0.00048455
     atom   12 type  1   force =     0.00003521    0.00039769    0.00015037
     atom   13 type  2   force =    -0.00059347    0.00016649   -0.00060014
     atom   14 type  3   force =     0.00132166   -0.00047409    0.00077778
     atom   15 type  3   force =    -0.00023246    0.00040059    0.00068613
     atom   16 type  3   force =    -0.00080205   -0.00018315    0.00047272

     Total force =     0.002598     Total SCF correction =     0.000462
     SCF correction compared to forces is large: reduce conv_thr to get better values

     entering subroutine stress ...

     negative rho (up, down):  1.375E+00 0.000E+00
          total   stress  (Ry/bohr**3)                   (kbar)     P=  -16.05
  -0.00012136   0.00000031   0.00000084        -17.85      0.05      0.12
   0.00000031  -0.00012189   0.00000009          0.05    -17.93      0.01
   0.00000084   0.00000009  -0.00008414          0.12      0.01    -12.38

     bfgs converged in  31 scf cycles and  30 bfgs steps
     (criteria: energy <  1.0E+00, force <  1.9E-03)

     End of BFGS Geometry Optimization

     Final energy   =   -1941.9332157247 Ry
Begin final coordinates

ATOMIC_POSITIONS (crystal)
Hf1      0.166666667   0.166666667   0.396510335    0   0   0
Hf1      0.666666667   0.166666667   0.396510335    0   0   0
Hf1      0.166666667   0.666666667   0.396510335    0   0   0
Hf1      0.666666667   0.666666667   0.396510335    0   0   0
Hf1      0.833333333   0.333333333   0.500000000    0   0   0
Hf1      0.333333333   0.333333333   0.500000000    0   0   0
Hf1      0.833333333   0.833333333   0.500000000    0   0   0
Hf1      0.333333333   0.833333333   0.500000000    0   0   0
Hf1     -0.003297975  -0.002628764   0.597634245
Hf1      0.504287871  -0.002588303   0.597671521
Hf1     -0.003585783   0.505068278   0.597645472
Hf1      0.499718299   0.499618765   0.594786860
C1       0.166428098   0.166632644   0.666363677
H1       0.346718786   0.075306701   0.685523035
H1       0.077461296   0.347321662   0.685412668
H1       0.075177213   0.077611873   0.685571821
End final coordinates

     Writing output data file calc.save

     General routines

     Parallel routines

   This run was terminated on:   7:16:37  18Apr2018

   JOB DONE.