     Program PWSCF v.5.1rc2 (svn rev. ) starts on 17Apr2018 at  8:41:11

     Current dimensions of program PWSCF are:
     Max number of different atomic species (ntypx) = 10
     Max number of k-points (npk) =  40000
     Max angular momentum in pseudopotentials (lmaxx) =  3
     Presently stress not available with electric field

     IMPORTANT: XC functional enforced from input :
     Exchange-correlation      = BEEF-VDW ( 1  4 27 13 2)
     Any further DFT definition will be discarded
     Please, verify this is what you really want

     Subspace diagonalization in iterative solution of the eigenvalue problem:
     a serial algorithm will be used

     bravais-lattice index     =            0
     lattice parameter (alat)  =       1.8897  a.u.
     unit-cell volume          =    3807.2308 (a.u.)^3
     number of atoms/cell      =           16
     number of atomic types    =            3
     number of electrons       =       235.00
     number of Kohn-Sham states=          127
     kinetic-energy cutoff     =      36.7493  Ry
     charge density cutoff     =     367.4932  Ry
     convergence threshold     =      1.0E-05
     mixing beta               =       0.3000
     number of iterations used =           10  plain     mixing
     Exchange-correlation      = BEEF-VDW ( 1  4 27 13 2)
     nstep                     =           50

     celldm(1)=   1.889726  celldm(2)=   0.000000  celldm(3)=   0.000000
     celldm(4)=   0.000000  celldm(5)=   0.000000  celldm(6)=   0.000000

     crystal axes: (cart. coord. in units of alat)
               a(1) = (   5.184823   0.000000   0.000000 )
               a(2) = (   2.592411   4.490188   0.000000 )
               a(3) = (   0.000000   0.000000  24.233390 )

     reciprocal axes: (cart. coord. in units 2 pi/alat)
               b(1) = (  0.192871 -0.111354  0.000000 )
               b(2) = (  0.000000  0.222708  0.000000 )
               b(3) = (  0.000000  0.000000  0.041265 )

     PseudoPot. # 1 for Cu read from file:
     /home/mamunm/src/pseudo/gbrv1.5pbe/Cu.UPF
     MD5 check sum: 6e991ff952a84172a2a52a1c1e996048
     Pseudo is Ultrasoft + core correction, Zval = 19.0
     Generated by new atomic code, or converted to UPF format
     Using radial grid of  867 points,  6 beta functions with:
                l(1) =   0
                l(2) =   0
                l(3) =   1
                l(4) =   1
                l(5) =   2
                l(6) =   2
     Q(r) pseudized with  8 coefficients,  rinner =    1.150   1.150   1.150
                                                       1.150   1.150

     PseudoPot. # 2 for C  read from file:
     /home/mamunm/src/pseudo/gbrv1.5pbe/C.UPF
     MD5 check sum: d1aef80898a10debaa0f26306b886e00
     Pseudo is Ultrasoft + core correction, Zval =  4.0
     Generated by new atomic code, or converted to UPF format
     Using radial grid of  721 points,  4 beta functions with:
                l(1) =   0
                l(2) =   0
                l(3) =   1
                l(4) =   1
     Q(r) pseudized with  8 coefficients,  rinner =    1.100   1.100   1.100

     PseudoPot. # 3 for H  read from file:
     /home/mamunm/src/pseudo/gbrv1.5pbe/H.UPF
     MD5 check sum: 761ae9a214b05c3daf00ab9f6b793d6f
     Pseudo is Ultrasoft, Zval =  1.0
     Generated by new atomic code, or converted to UPF format
     Using radial grid of  615 points,  2 beta functions with:
                l(1) =   0
                l(2) =   0
     Q(r) pseudized with  8 coefficients,  rinner =    0.700

     vdW kernel table read from file vdW_kernel_table
     MD5 check sum: 095c7af220d748ca6e76c0b4c6cfb241

     atomic species   valence    mass     pseudopotential
        Cu1           19.00    63.54600     Cu( 1.00)
        C1             4.00    12.01100     C ( 1.00)
        H1             1.00     1.00800     H ( 1.00)

     No symmetry found

   Cartesian axes

     site n.     atom                  positions (alat units)
         1           Cu1 tau(   1) = (   1.2962057   0.7483647  10.0000000  )
         2           Cu1 tau(   2) = (   3.8886170   0.7483647  10.0000000  )
         3           Cu1 tau(   3) = (   2.5924113   2.9934587  10.0000000  )
         4           Cu1 tau(   4) = (   5.1848226   2.9934587  10.0000000  )
         5           Cu1 tau(   5) = (   5.1848226   1.4967294  12.1166950  )
         6           Cu1 tau(   6) = (   2.5924113   1.4967294  12.1166950  )
         7           Cu1 tau(   7) = (   6.4810283   3.7418234  12.1166950  )
         8           Cu1 tau(   8) = (   3.8886170   3.7418234  12.1166950  )
         9           Cu1 tau(   9) = (   0.0000000   0.0000000  14.2333899  )
        10           Cu1 tau(  10) = (   2.5924113   0.0000000  14.2333899  )
        11           Cu1 tau(  11) = (   1.2962057   2.2450940  14.2333899  )
        12           Cu1 tau(  12) = (   3.8886170   2.2450940  14.2333899  )
        13           C1  tau(  13) = (   1.2962057   0.0000000  15.7933899  )
        14           H1  tau(  14) = (   2.3862057   0.0000000  16.4233899  )
        15           H1  tau(  15) = (   0.8462057   0.8895000  16.4233899  )
        16           H1  tau(  16) = (   3.4386170   3.6006881  16.4233899  )

     number of k points=    20  Fermi-Dirac smearing, width (Ry)=  0.0110
                       cart. coord. in units 2pi/alat
        k(    1) = (   0.0000000   0.0000000   0.0000000), wk =   0.0555556
        k(    2) = (   0.0000000   0.0371180   0.0000000), wk =   0.1111111
        k(    3) = (   0.0000000   0.0742359   0.0000000), wk =   0.1111111
        k(    4) = (   0.0000000  -0.1113539   0.0000000), wk =   0.0555556
        k(    5) = (   0.0321451  -0.0185590   0.0000000), wk =   0.1111111
        k(    6) = (   0.0321451   0.0185590   0.0000000), wk =   0.1111111
        k(    7) = (   0.0321451   0.0556770   0.0000000), wk =   0.1111111
        k(    8) = (   0.0321451  -0.1299129   0.0000000), wk =   0.1111111
        k(    9) = (   0.0321451  -0.0927949   0.0000000), wk =   0.1111111
        k(   10) = (   0.0321451  -0.0556770   0.0000000), wk =   0.1111111
        k(   11) = (   0.0642902  -0.0371180   0.0000000), wk =   0.1111111
        k(   12) = (   0.0642902  -0.0000000   0.0000000), wk =   0.1111111
        k(   13) = (   0.0642902   0.0371180   0.0000000), wk =   0.1111111
        k(   14) = (   0.0642902  -0.1484719   0.0000000), wk =   0.1111111
        k(   15) = (   0.0642902  -0.1113539   0.0000000), wk =   0.1111111
        k(   16) = (   0.0642902  -0.0742359   0.0000000), wk =   0.1111111
        k(   17) = (  -0.0964353   0.0556770   0.0000000), wk =   0.0555556
        k(   18) = (  -0.0964353   0.0927949   0.0000000), wk =   0.1111111
        k(   19) = (  -0.0964353   0.1299129   0.0000000), wk =   0.1111111
        k(   20) = (  -0.0964353  -0.0556770   0.0000000), wk =   0.0555556

     Largest allocated arrays     est. size (Mb)     dimensions
     Largest temporary arrays     est. size (Mb)     dimensions

     Initial potential from superposition of free atoms
     Check: negative starting charge=   -0.000132

     starting charge  222.99991, renormalised to  235.00000

     negative rho (up, down):  1.394E-04 0.000E+00

     *
     * You are using vdW-DF for exchange-correlation in this calculation.
     * Please cite the following three references that made this development
     * possible:
     *
     *   M. Dion, H. Rydberg, E. Schroder, D. C. Langreth, and
     *   B. I. Lundqvist, Phys. Rev. Lett. 92, 246401 (2004).
     *
     *   T. Thonhauser, V. R. Cooper, S. Li, A. Puzder, P. Hyldgaard, and
     *   D. C. Langreth, Phys. Rev. B 76, 125112 (2007).
     *
     *   G. Roman-Perez and J. M. Soler, Phys. Rev. Lett. 103, 096102 (2009).
     *
     *
     * If you are using vdW-DF2, please also cite:
     *
     *   K. Lee, E. D. Murray, L. Kong, B. I. Lundqvist, and
     *   D. C. Langreth, Phys. Rev. B 82, 081101(R) (2010).
     *
     *
     * If you are calculating the stress with vdW-DF, please also cite:
     *
     *   R. Sabatini, E. Kucukbenli, B. Kolb, T. Thonhauser, and
     *   S. de Gironcoli, J. Phys.: Condens. Matter 24, 424209 (2012).
     *

     Carrying out vdW-DF run using the following parameters:

     Nqs =      20    Nr_points =    1024   r_max =   100.000
     q_mesh =
               0.00001000     0.04494208     0.09755937     0.15916263
               0.23128650     0.31572767     0.41458969     0.53033537
               0.66584808     0.82450364     1.01025438     1.22772762
               1.48234092     1.78043706     2.12944203     2.53805004
               3.01644009     3.57652955     4.23227104     5.00000000

     Gradients computed in reciprocal space

     Adding external electric field

     Computed dipole along edir(3) :
        Dipole               -2.8089 Ry au,         -7.1394 Debye
        Dipole field         -0.0093 Ry au

        Potential amp.        0.8279 Ry
        Total length         44.6496 bohr

     Starting wfc are  163 randomized atomic wfcs

     Self-consistent Calculation

     iteration #  1     ecut=    36.75 Ry     beta=0.30
     Davidson diagonalization with overlap
     ethr =  1.00E-02,  avg # of iterations =  8.0

[...]

     total energy              =   -4473.15062284 Ry
     Harris-Foulkes estimate   =   -4869.04260966 Ry
     estimated scf accuracy    <     833.77924933 Ry

[...]

     End of self-consistent calculation

          k = 0.0000 0.0000 0.0000 ( 14321 PWs)   bands (ev):

  -111.7760-111.7231-111.6452-111.5766-111.5724-111.4979-111.3444-111.3201
  -111.3146-111.3129-111.3069-111.3020 -69.2216 -69.1696 -69.1664 -69.1270
   -69.1143 -69.0757 -69.0497 -69.0481 -69.0386 -69.0027 -68.9754 -68.9711
   -68.9688 -68.9644 -68.9453 -68.8983 -68.8919 -68.8834 -68.7801 -68.7743
   -68.7642 -68.7632 -68.7484 -68.7232 -68.7213 -68.7189 -68.7182 -68.7146
   -68.7144 -68.6970 -68.6966 -68.6843 -68.6791 -68.6746 -68.6705 -68.6546
   -12.0570  -7.2865  -5.5912  -4.9239  -4.8488  -4.3274  -3.8097  -3.5569
    -3.5117  -3.4807  -3.3453  -3.3037  -3.2093  -3.0703  -3.0482  -2.9693
    -2.9453  -2.9211  -2.7711  -2.3838  -2.2978  -2.1235  -2.0835  -2.0361
    -2.0117  -1.9378  -1.9087  -1.8932  -1.8565  -1.8275  -1.7712  -1.7439
    -1.7395  -1.6798  -1.6252  -1.6159  -1.5286  -1.4694  -1.4330  -1.2596
    -1.2358  -1.1700  -1.1137  -1.0992  -1.0940  -1.0448  -0.9242  -0.9205
    -0.8596  -0.7524  -0.7323  -0.7111  -0.7001  -0.6707  -0.6596  -0.6568
    -0.6405  -0.6246  -0.6035  -0.5988  -0.5810  -0.5407  -0.4789  -0.3777
    -0.3740  -0.3729   0.0603   1.0406   1.0614   1.1671   1.5777   2.0707
     2.2250   2.4453   2.5459   2.6261   3.0436   4.1300   4.8675

[...]

          k =-0.0964 0.0557 0.0000 ( 14294 PWs)   bands (ev):

[...]

     the Fermi energy is     0.9957 ev

!    total energy              =   -4874.38411702 Ry
     Harris-Foulkes estimate   =   -4874.38408198 Ry
     estimated scf accuracy    <       0.00000952 Ry

     The total energy is the sum of the following terms:

     one-electron contribution =  -37865.72544107 Ry
     hartree contribution      =   18953.20101271 Ry
     xc contribution           =    -486.00469147 Ry
     ewald contribution        =   14524.17038319 Ry
     electric field correction =       0.00023456 Ry
     smearing contrib. (-TS)   =      -0.02561495 Ry

     convergence has been achieved in  32 iterations

 BEEF-vdW xc energy contributions
           1 :   -430.489822705913
           2 :    390.173838020008
           3 :   -321.927049510373
           4 :    244.556683553703
           5 :   -175.133357818102
           6 :    122.913872202805
           7 :   -87.9094542523527
           8 :    64.0290129127934
           9 :   -44.3744987174274
          10 :    25.4309767119814
          11 :   -8.04733221703327
          12 :   -4.67087744857270
          13 :    10.5776075558629
          14 :   -10.4783537449945
          15 :    7.73419438313852
          16 :   -6.07120765572643
          17 :    7.30493352485462
          18 :   -10.5442206693406
          19 :    13.2649210059250
          20 :   -13.3440740837226
          21 :    10.5837593746326
          22 :   -6.73948258948394
          23 :    4.17191198810212
          24 :   -4.17403598344890
          25 :    6.15738017015627
          26 :   -8.19851316139261
          27 :    8.47370434195807
          28 :   -6.53134890097624
          29 :    3.52902446509080
          30 :   -1.33219145571047
          31 :   -34.5502736104527
          32 :   -23.6203111724945

     Forces acting on atoms (Ry/au):

     negative rho (up, down):  9.952E-04 0.000E+00
     atom    1 type  1   force =    -0.00008768   -0.00230081    0.01061501
     atom    2 type  1   force =     0.00012907    0.00023249    0.00488689
     atom    3 type  1   force =     0.00182778    0.00123255    0.00528687
     atom    4 type  1   force =    -0.00187832    0.00111148    0.00637031
     atom    5 type  1   force =    -0.00127671    0.00051116    0.00172636
     atom    6 type  1   force =     0.00103121   -0.00009452    0.00256690
     atom    7 type  1   force =    -0.00038970    0.00096922    0.01122548
     atom    8 type  1   force =     0.00053345   -0.00080399   -0.00622853
     atom    9 type  1   force =    -0.00676715   -0.00134199   -0.02119500
     atom   10 type  1   force =     0.01014158   -0.00141139   -0.01255779
     atom   11 type  1   force =    -0.00101364    0.00415795   -0.01873437
     atom   12 type  1   force =    -0.00083962   -0.00226892   -0.02014543
     atom   13 type  2   force =     0.03282112    0.00021822    0.21534786
     atom   14 type  3   force =    -0.07777009   -0.00008810   -0.07406244
     atom   15 type  3   force =     0.02178770   -0.04416516   -0.05263135
     atom   16 type  3   force =     0.02175101    0.04404182   -0.05247076

     Total force =     0.266246     Total SCF correction =     0.005779

     entering subroutine stress ...

     negative rho (up, down):  9.952E-04 0.000E+00
          total   stress  (Ry/bohr**3)                   (kbar)     P=  -33.37
  -0.00025369  -0.00000001  -0.00001167        -37.32     -0.00     -1.72
  -0.00000001  -0.00024081  -0.00000126         -0.00    -35.42     -0.19
  -0.00001167  -0.00000126  -0.00018600         -1.72     -0.19    -27.36

     BFGS Geometry Optimization

     number of scf cycles    =   1
     number of bfgs steps    =   0

     energy   new            =   -4874.3841170243 Ry

     new trust radius        =       0.2178347358 bohr
     new conv_thr            =       0.0000099958 Ry

ATOMIC_POSITIONS (crystal)
Cu1      0.166666667   0.166666667   0.412653782    0   0   0
Cu1      0.666666667   0.166666667   0.412653782    0   0   0
Cu1      0.166666667   0.666666667   0.412653782    0   0   0
Cu1      0.666666667   0.666666667   0.412653782    0   0   0
Cu1      0.833333333   0.333333333   0.500000000    0   0   0
Cu1      0.333333333   0.333333333   0.500000000    0   0   0
Cu1      0.833333333   0.833333333   0.500000000    0   0   0
Cu1      0.333333333   0.833333333   0.500000000    0   0   0
Cu1     -0.000611595  -0.000158157   0.586883389
Cu1      0.501118246  -0.000166336   0.587071997
Cu1     -0.000348466   0.500490022   0.586937121
Cu1      0.500048004   0.499732604   0.586906309
C1       0.253336955   0.000025717   0.656422694
H1       0.452296749  -0.000010383   0.676100117
H1       0.068985100   0.192893658   0.676568102
H1       0.261882281   0.807091807   0.676571608

     Writing output data file calc.save
     Check: negative starting charge=   -0.000132
     NEW-OLD atomic charge density approx. for the potential
     Check: negative starting charge=   -0.000135

[...]

     iteration #  1     ecut=    36.75 Ry     beta=0.30
     Davidson diagonalization with overlap
     c_bands:  1 eigenvalues not converged
     c_bands:  1 eigenvalues not converged
     c_bands:  1 eigenvalues not converged
     c_bands:  1 eigenvalues not converged
     c_bands:  1 eigenvalues not converged
     ethr =  1.00E-06,  avg # of iterations = 13.0

[...]

     energy   old            =   -4874.3841170243 Ry
     energy   new            =   -4874.4297120838 Ry

     CASE: energy  _new < energy  _old

[...]

     iteration #  1     ecut=    36.75 Ry     beta=0.30
     Davidson diagonalization with overlap
     c_bands:  1 eigenvalues not converged
     c_bands:  1 eigenvalues not converged
     ethr =  1.00E-06,  avg # of iterations =  6.5

[...]

     Total force =     0.008319     Total SCF correction =     0.000530

[...]

     Total force =     0.006268     Total SCF correction =     0.000903
     SCF correction compared to forces is large: reduce conv_thr to get better values

[...]

     Threshold (ethr) on eigenvalues was too large:
     Diagonalizing with lowered threshold

     Davidson diagonalization with overlap
     ethr =  5.68E-08,  avg # of iterations =  1.0

[...]

     number of scf cycles    =  19
     number of bfgs steps    =  18

     energy   old            =   -4874.4419410251 Ry
     energy   new            =   -4874.4419686131 Ry

     CASE: energy  _new < energy  _old

     new trust radius        =       0.0115131466 bohr
     new conv_thr            =       0.0000001000 Ry

ATOMIC_POSITIONS (crystal)
Cu1      0.166666667   0.166666667   0.412653782    0   0   0
Cu1      0.666666667   0.166666667   0.412653782    0   0   0
Cu1      0.166666667   0.666666667   0.412653782    0   0   0
Cu1      0.666666667   0.666666667   0.412653782    0   0   0
Cu1      0.833333333   0.333333333   0.500000000    0   0   0
Cu1      0.333333333   0.333333333   0.500000000    0   0   0
Cu1      0.833333333   0.833333333   0.500000000    0   0   0
Cu1      0.333333333   0.833333333   0.500000000    0   0   0
Cu1      0.015545427  -0.000423966   0.590478587
Cu1      0.497008663  -0.000740842   0.588704705
Cu1     -0.001494543   0.508101931   0.583731966
Cu1      0.506620897   0.491588483   0.583526695
C1       0.245457926  -0.000520926   0.665421605
H1       0.450474296  -0.000667395   0.677156724
H1       0.060324103   0.198535058   0.683788979
H1       0.258835729   0.800827975   0.683871067

     Writing output data file calc.save
     Check: negative starting charge=   -0.000138
     NEW-OLD atomic charge density approx. for the potential
     Check: negative starting charge=   -0.000137

[...]

     Self-consistent Calculation

[...]

     total energy              =   -4874.44199653 Ry
     Harris-Foulkes estimate   =   -4874.44199654 Ry
     estimated scf accuracy    <       0.00000011 Ry

     iteration #  9     ecut=    36.75 Ry     beta=0.30
     Davidson diagonalization with overlap
     ethr =  4.55E-11,  avg # of iterations =  1.9

[...]

     negative rho (up, down):  1.019E-03 0.000E+00

     Adding external electric field

     Computed dipole along edir(3) :
        Dipole                0.1499 Ry au,          0.3811 Debye
        Dipole field          0.0005 Ry au

        Potential amp.       -0.0442 Ry
        Total length         44.6496 bohr

     End of self-consistent calculation

[...]

          k = 0.0643-0.0742 0.0000 ( 14299 PWs)   bands (ev):

[...]

          k =-0.0964-0.0557 0.0000 ( 14294 PWs)   bands (ev):

  -111.7934-111.7697-111.7602-111.7252-111.7018-111.6710-111.5141-111.4854
  -111.4846-111.4806-111.4755-111.4673 -69.2023 -69.1920 -69.1891 -69.1745
   -69.1705 -69.1685 -69.1613 -69.1523 -69.1462 -69.1416 -69.1258 -69.1169
   -69.1064 -69.0905 -69.0817 -69.0746 -69.0640 -69.0506 -68.9356 -68.9263
   -68.9161 -68.9124 -68.9065 -68.8997 -68.8975 -68.8955 -68.8946 -68.8859
   -68.8790 -68.8775 -68.8675 -68.8536 -68.8468 -68.8448 -68.8411 -68.8222
   -12.1052  -5.8474  -5.6819  -5.3349  -5.1960  -4.1983  -3.9329  -3.4541
    -3.4042  -3.2936  -3.1740  -3.1601  -3.1431  -3.0021  -2.8550  -2.8442
    -2.7127  -2.6823  -2.6182  -2.5667  -2.4730  -2.4400  -2.4070  -2.3776
    -2.3577  -2.2922  -2.1203  -2.1168  -2.0451  -1.9994  -1.9597  -1.9364
    -1.9226  -1.8748  -1.8319  -1.8216  -1.8049  -1.7964  -1.7757  -1.7417
    -1.7364  -1.7298  -1.6614  -1.5640  -1.5343  -1.4879  -1.4277  -1.3730
    -1.3385  -1.3010  -1.2744  -1.2510  -1.2214  -1.1986  -1.1786  -1.1456
    -1.0898  -1.0532  -1.0183  -0.9713  -0.8466  -0.8270  -0.8034  -0.7916
    -0.7329  -0.7109  -0.6916   0.2301   0.7784   0.8368   1.3295   1.6507
     1.9895   2.6055   3.8333   3.9872   4.5374   5.1730   5.2350

     the Fermi energy is     0.8271 ev

!    total energy              =   -4874.44199655 Ry
     Harris-Foulkes estimate   =   -4874.44199646 Ry
     estimated scf accuracy    <       0.00000002 Ry

     The total energy is the sum of the following terms:

     one-electron contribution =  -37807.13285728 Ry
     hartree contribution      =   18923.11405465 Ry
     xc contribution           =    -486.12835289 Ry
     ewald contribution        =   14495.73135915 Ry
     electric field correction =       0.00007420 Ry
     smearing contrib. (-TS)   =      -0.02627437 Ry

     convergence has been achieved in   9 iterations

 BEEF-vdW xc energy contributions
           1 :   -430.581541874857
           2 :    390.185601143685
           3 :   -321.855402814005
           4 :    244.460828260054
           5 :   -175.076153183143
           6 :    122.925735214937
           7 :   -87.9833255577737
           8 :    64.1346465544025
           9 :   -44.4807052534804
          10 :    25.5222564625219
          11 :   -8.12657569684870
          12 :   -4.59228253241190
          13 :    10.4931747117329
          14 :   -10.3945898046616
          15 :    7.66799845174489
          16 :   -6.03728525113740
          17 :    7.30449763549132
          18 :   -10.5655043777484
          19 :    13.2930495415505
          20 :   -13.3711645668344
          21 :    10.6117139590270
          22 :   -6.77408358727234
          23 :    4.21439130129590
          24 :   -4.21729464367900
          25 :    6.18953770232156
          26 :   -8.21152322047101
          27 :    8.46976818648164
          28 :   -6.52104872257792
          29 :    3.52284112722339
          30 :   -1.33270473588038
          31 :   -34.5546120203519
          32 :   -23.6074865025086

     Forces acting on atoms (Ry/au):

     negative rho (up, down):  1.019E-03 0.000E+00
     atom    1 type  1   force =    -0.00031135   -0.00226508    0.00501534
     atom    2 type  1   force =     0.00028549    0.00013993    0.00154809
     atom    3 type  1   force =     0.00179349    0.00129193    0.00334213
     atom    4 type  1   force =    -0.00184144    0.00096364    0.00284356
     atom    5 type  1   force =     0.00072779   -0.00545335   -0.00574329
     atom    6 type  1   force =     0.00018613   -0.00462914   -0.00657050
     atom    7 type  1   force =     0.00122694    0.00736065    0.00829707
     atom    8 type  1   force =    -0.00014903    0.00255537   -0.00725228
     atom    9 type  1   force =    -0.00109641    0.00008154   -0.00012926
     atom   10 type  1   force =     0.00128238    0.00008799   -0.00088919
     atom   11 type  1   force =    -0.00003876   -0.00059088   -0.00028746
     atom   12 type  1   force =    -0.00000132    0.00062369   -0.00041099
     atom   13 type  2   force =    -0.00187862   -0.00001993   -0.00067217
     atom   14 type  3   force =    -0.00011525   -0.00005684    0.00039848
     atom   15 type  3   force =    -0.00001652   -0.00045101    0.00028436
     atom   16 type  3   force =    -0.00005352    0.00036151    0.00022611

     Total force =     0.003047     Total SCF correction =     0.000731
     SCF correction compared to forces is large: reduce conv_thr to get better values

     entering subroutine stress ...

     negative rho (up, down):  1.019E-03 0.000E+00
          total   stress  (Ry/bohr**3)                   (kbar)     P=  -20.90
  -0.00016925  -0.00000097  -0.00000392        -24.90     -0.14     -0.58
  -0.00000097  -0.00015313  -0.00000025         -0.14    -22.53     -0.04
  -0.00000392  -0.00000025  -0.00010379         -0.58     -0.04    -15.27

     bfgs converged in  20 scf cycles and  19 bfgs steps
     (criteria: energy <  1.0E+00, force <  1.9E-03)

     End of BFGS Geometry Optimization

     Final energy   =   -4874.4419965506 Ry
Begin final coordinates

ATOMIC_POSITIONS (crystal)
Cu1      0.166666667   0.166666667   0.412653782    0   0   0
Cu1      0.666666667   0.166666667   0.412653782    0   0   0
Cu1      0.166666667   0.666666667   0.412653782    0   0   0
Cu1      0.666666667   0.666666667   0.412653782    0   0   0
Cu1      0.833333333   0.333333333   0.500000000    0   0   0
Cu1      0.333333333   0.333333333   0.500000000    0   0   0
Cu1      0.833333333   0.833333333   0.500000000    0   0   0
Cu1      0.333333333   0.833333333   0.500000000    0   0   0
Cu1      0.015545427  -0.000423966   0.590478587
Cu1      0.497008663  -0.000740842   0.588704705
Cu1     -0.001494543   0.508101931   0.583731966
Cu1      0.506620897   0.491588483   0.583526695
C1       0.245457926  -0.000520926   0.665421605
H1       0.450474296  -0.000667395   0.677156724
H1       0.060324103   0.198535058   0.683788979
H1       0.258835729   0.800827975   0.683871067
End final coordinates

     Writing output data file calc.save

     General routines

     Parallel routines

   This run was terminated on:   9:43:36  17Apr2018

   JOB DONE.