     Program PWSCF v.5.1rc2 (svn rev. 11289) starts on  3May2018 at 16: 7:15

     Current dimensions of program PWSCF are:
     Max number of different atomic species (ntypx) = 10
     Max number of k-points (npk) =  40000
     Max angular momentum in pseudopotentials (lmaxx) =  3
     Presently stress not available with electric field

     IMPORTANT: XC functional enforced from input :
     Exchange-correlation      = BEEF-VDW ( 1  4 27 13 2)
     Any further DFT definition will be discarded
     Please, verify this is what you really want

     Subspace diagonalization in iterative solution of the eigenvalue problem:
     a serial algorithm will be used

     bravais-lattice index     =            0
     lattice parameter (alat)  =       1.8897  a.u.
     unit-cell volume          =    6024.3322 (a.u.)^3
     number of atoms/cell      =           13
     number of atomic types    =            2
     number of electrons       =       150.00
     number of Kohn-Sham states=           85
     kinetic-energy cutoff     =      36.7493  Ry
     charge density cutoff     =     367.4932  Ry
     convergence threshold     =      1.0E-05
     mixing beta               =       0.3000
     number of iterations used =           10  plain     mixing
     Exchange-correlation      = BEEF-VDW ( 1  4 27 13 2)
     nstep                     =           50

     celldm(1)=   1.889726  celldm(2)=   0.000000  celldm(3)=   0.000000
     celldm(4)=   0.000000  celldm(5)=   0.000000  celldm(6)=   0.000000

     crystal axes: (cart. coord. in units of alat)
               a(1) = (   6.393197   0.000000   0.000000 )
               a(2) = (   3.196599   5.536671   0.000000 )
               a(3) = (   0.000000   0.000000  25.220024 )

     reciprocal axes: (cart. coord. in units 2 pi/alat)
               b(1) = (  0.156416 -0.090307  0.000000 )
               b(2) = (  0.000000  0.180614  0.000000 )
               b(3) = (  0.000000  0.000000  0.039651 )

     PseudoPot. # 1 for Hf read from file:
     /u/if/mamunm/psp/gbrv1.5pbe/Hf.UPF
     MD5 check sum: 8ee9378dfe14276e333edf04c5e4aa26
     Pseudo is Ultrasoft + core correction, Zval = 12.0
     Generated by new atomic code, or converted to UPF format
     Using radial grid of  921 points,  8 beta functions with:
                l(1) =   0
                l(2) =   0
                l(3) =   0
                l(4) =   1
                l(5) =   1
                l(6) =   2
                l(7) =   2
                l(8) =   3
     Q(r) pseudized with  6 coefficients,  rinner =    1.200   1.200   1.200
                                                       1.200   1.200   1.200
                                                       1.200

     PseudoPot. # 2 for O  read from file:
     /u/if/mamunm/psp/gbrv1.5pbe/O.UPF
     MD5 check sum: 734c27235a0248c51dbae37a1fbe46ec
     Pseudo is Ultrasoft + core correction, Zval =  6.0
     Generated by new atomic code, or converted to UPF format
     Using radial grid of  737 points,  5 beta functions with:
                l(1) =   0
                l(2) =   0
                l(3) =   1
                l(4) =   1
                l(5) =   2
     Q(r) pseudized with  8 coefficients,  rinner =    0.900   0.900   0.900
                                                       0.900   0.900

     vdW kernel table read from file vdW_kernel_table
     MD5 check sum: 095c7af220d748ca6e76c0b4c6cfb241

     atomic species   valence    mass     pseudopotential
        Hf1           12.00   178.49000     Hf( 1.00)
        O1             6.00    15.99900     O ( 1.00)

     No symmetry found

   Cartesian axes

     site n.     atom                  positions (alat units)
         1           Hf1 tau(   1) = (   1.5982993   0.9227785  10.0000000  )
         2           Hf1 tau(   2) = (   4.7948978   0.9227785  10.0000000  )
         3           Hf1 tau(   3) = (   3.1965986   3.6911141  10.0000000  )
         4           Hf1 tau(   4) = (   6.3931971   3.6911141  10.0000000  )
         5           Hf1 tau(   5) = (   6.3931971   1.8455570  12.6100118  )
         6           Hf1 tau(   6) = (   3.1965986   1.8455570  12.6100118  )
         7           Hf1 tau(   7) = (   7.9914964   4.6138926  12.6100118  )
         8           Hf1 tau(   8) = (   4.7948978   4.6138926  12.6100118  )
         9           Hf1 tau(   9) = (   0.0000000   0.0000000  15.2200236  )
        10           Hf1 tau(  10) = (   3.1965986   0.0000000  15.2200236  )
        11           Hf1 tau(  11) = (   1.5982993   2.7683356  15.2200236  )
        12           Hf1 tau(  12) = (   4.7948978   2.7683356  15.2200236  )
        13           O1  tau(  13) = (   1.5982993   0.9227785  16.7865236  )

     number of k points=    20  Fermi-Dirac smearing, width (Ry)=  0.0110
                       cart. coord. in units 2pi/alat
        k(    1) = (   0.0000000   0.0000000   0.0000000), wk =   0.0555556
        k(    2) = (   0.0000000   0.0301023   0.0000000), wk =   0.1111111
        k(    3) = (   0.0000000   0.0602046   0.0000000), wk =   0.1111111
        k(    4) = (   0.0000000  -0.0903070   0.0000000), wk =   0.0555556
        k(    5) = (   0.0260694  -0.0150512   0.0000000), wk =   0.1111111
        k(    6) = (   0.0260694   0.0150512   0.0000000), wk =   0.1111111
        k(    7) = (   0.0260694   0.0451535   0.0000000), wk =   0.1111111
        k(    8) = (   0.0260694  -0.1053581   0.0000000), wk =   0.1111111
        k(    9) = (   0.0260694  -0.0752558   0.0000000), wk =   0.1111111
        k(   10) = (   0.0260694  -0.0451535   0.0000000), wk =   0.1111111
        k(   11) = (   0.0521388  -0.0301023   0.0000000), wk =   0.1111111
        k(   12) = (   0.0521388   0.0000000   0.0000000), wk =   0.1111111
        k(   13) = (   0.0521388   0.0301023   0.0000000), wk =   0.1111111
        k(   14) = (   0.0521388  -0.1204093   0.0000000), wk =   0.1111111
        k(   15) = (   0.0521388  -0.0903070   0.0000000), wk =   0.1111111
        k(   16) = (   0.0521388  -0.0602046   0.0000000), wk =   0.1111111
        k(   17) = (  -0.0782081   0.0451535   0.0000000), wk =   0.0555556
        k(   18) = (  -0.0782081   0.0752558   0.0000000), wk =   0.1111111
        k(   19) = (  -0.0782081   0.1053581   0.0000000), wk =   0.1111111
        k(   20) = (  -0.0782081  -0.0451535   0.0000000), wk =   0.0555556

     Largest allocated arrays     est. size (Mb)     dimensions
     Largest temporary arrays     est. size (Mb)     dimensions

     Check: negative/imaginary core charge=   -0.000003    0.000000

     Initial potential from superposition of free atoms
     Check: negative starting charge=   -1.301681

     starting charge  125.99997, renormalised to  150.00000

     negative rho (up, down):  1.550E+00 0.000E+00

     *
     * You are using vdW-DF for exchange-correlation in this calculation.
     * Please cite the following three references that made this development
     * possible:
     *
     *   M. Dion, H. Rydberg, E. Schroder, D. C. Langreth, and
     *   B. I. Lundqvist, Phys. Rev. Lett. 92, 246401 (2004).
     *
     *   T. Thonhauser, V. R. Cooper, S. Li, A. Puzder, P. Hyldgaard, and
     *   D. C. Langreth, Phys. Rev. B 76, 125112 (2007).
     *
     *   G. Roman-Perez and J. M. Soler, Phys. Rev. Lett. 103, 096102 (2009).
     *
     *
     * If you are using vdW-DF2, please also cite:
     *
     *   K. Lee, E. D. Murray, L. Kong, B. I. Lundqvist, and
     *   D. C. Langreth, Phys. Rev. B 82, 081101(R) (2010).
     *
     *
     * If you are calculating the stress with vdW-DF, please also cite:
     *
     *   R. Sabatini, E. Kucukbenli, B. Kolb, T. Thonhauser, and
     *   S. de Gironcoli, J. Phys.: Condens. Matter 24, 424209 (2012).
     *

     Carrying out vdW-DF run using the following parameters:

     Nqs =      20    Nr_points =    1024   r_max =   100.000
     q_mesh =
               0.00001000     0.04494208     0.09755937     0.15916263
               0.23128650     0.31572767     0.41458969     0.53033537
               0.66584808     0.82450364     1.01025438     1.22772762
               1.48234092     1.78043706     2.12944203     2.53805004
               3.01644009     3.57652955     4.23227104     5.00000000

     Gradients computed in reciprocal space

     Adding external electric field

     Computed dipole along edir(3) :
        Dipole               -9.0200 Ry au,        -22.9264 Debye
        Dipole field         -0.0188 Ry au

        Potential amp.        1.7486 Ry
        Total length         46.4675 bohr

     Starting wfc are  160 randomized atomic wfcs

     Self-consistent Calculation

     iteration #  1     ecut=    36.75 Ry     beta=0.30
     Davidson diagonalization with overlap
     ethr =  1.00E-02,  avg # of iterations =  9.6

[...]

     total energy              =   -1261.75020335 Ry
     Harris-Foulkes estimate   =   -1948.03091349 Ry
     estimated scf accuracy    <    1475.40141057 Ry

[...]

     iteration # 43     ecut=    36.75 Ry     beta=0.30
     Davidson diagonalization with overlap
     c_bands:  1 eigenvalues not converged
     ethr =  6.74E-06,  avg # of iterations =  2.6

[...]

     End of self-consistent calculation

          k = 0.0000 0.0000 0.0000 ( 22729 PWs)   bands (ev):

   -61.5184 -61.4760 -61.4566 -61.4564 -61.4305 -61.3977 -61.3966 -61.3941
   -60.9965 -60.9691 -60.9687 -60.9043 -30.2518 -30.2517 -30.2199 -30.1760
   -30.1758 -30.1754 -30.1675 -30.0869 -30.0409 -30.0406 -30.0350 -29.9652
   -29.9569 -29.9562 -29.8287 -29.8262 -29.8261 -29.7688 -29.7682 -29.7678
   -29.7113 -29.6937 -29.6936 -29.6858 -29.6856 -29.6406 -29.6405 -29.4629
   -29.4523 -29.4520 -29.3732 -29.3585 -29.3449 -29.3447 -29.2218 -29.2217
   -15.8863  -5.2718  -3.9751  -2.7453  -2.3405  -2.3405  -2.1853  -1.7679
    -1.7678  -1.6609  -1.4670  -1.4144  -1.4144  -0.8157  -0.8157  -0.7770
    -0.4746  -0.4746  -0.2117   0.3340   0.3341   0.6729   1.2119   1.4263
     1.6230   1.6429   1.6576   1.6576   1.6924   1.6925   2.0017   2.2266
     2.3153   2.3154   2.4764   2.4846   2.4847

[...]

          k =-0.0782 0.0452 0.0000 ( 22668 PWs)   bands (ev):

[...]

     the Fermi energy is     1.2030 ev

!    total energy              =   -1959.34548725 Ry
     Harris-Foulkes estimate   =   -1959.34548115 Ry
     estimated scf accuracy    <       0.00000170 Ry

     The total energy is the sum of the following terms:

     one-electron contribution =   -8632.25277093 Ry
     hartree contribution      =    4301.13323720 Ry
     xc contribution           =    -935.18119026 Ry
     ewald contribution        =    3307.06875810 Ry
     electric field correction =       0.00008955 Ry
     smearing contrib. (-TS)   =      -0.11361091 Ry

     convergence has been achieved in  49 iterations

 BEEF-vdW xc energy contributions
           1 :   -845.373214128111
           2 :    785.383401025367
           3 :   -679.204127877640
           4 :    548.929470885928
           5 :   -417.295579342547
           6 :    301.304133628774
           7 :   -209.508401021139
           8 :    142.999564445947
           9 :   -98.4878485876484
          10 :    71.2799334950864
          11 :   -56.8367039383006
          12 :    50.8690851915444
          13 :   -48.9347686109093
          14 :    46.5143940579076
          15 :   -39.9159789906007
          16 :    27.4988018861898
          17 :   -10.3746540303187
          18 :   -8.01630902428076
          19 :    23.3603238489763
          20 :   -32.2689441502791
          21 :    33.5321247085290
          22 :   -28.3015639413427
          23 :    19.2863248908488
          24 :   -9.55326958820547
          25 :    1.57829413318348
          26 :    3.12198282395491
          27 :   -3.90340954374904
          28 :   0.800942136329240
          29 :    5.50848955697131
          30 :   -13.6252540920061
          31 :   -60.9060703543649
          32 :   -43.7394567024575

     Forces acting on atoms (Ry/au):

     negative rho (up, down):  1.380E+00 0.000E+00
     atom    1 type  1   force =    -0.00003192   -0.00003415    0.02365340
     atom    2 type  1   force =     0.00003870    0.00160972    0.02481235
     atom    3 type  1   force =     0.00142665   -0.00077001    0.02484445
     atom    4 type  1   force =    -0.00142519   -0.00080744    0.02482728
     atom    5 type  1   force =    -0.00086932    0.00061357   -0.00040227
     atom    6 type  1   force =     0.00086136    0.00050864   -0.00033755
     atom    7 type  1   force =    -0.00008303   -0.00005920   -0.00521257
     atom    8 type  1   force =     0.00007844   -0.00106376   -0.00041110
     atom    9 type  1   force =     0.03298268    0.01901816    0.04202403
     atom   10 type  1   force =    -0.03300540    0.01900175    0.04201743
     atom   11 type  1   force =    -0.00002490   -0.03806853    0.04203978
     atom   12 type  1   force =     0.00005277    0.00005301   -0.04350591
     atom   13 type  2   force =    -0.00000082   -0.00000177   -0.17434932

     Total force =     0.204789     Total SCF correction =     0.000471

     entering subroutine stress ...

     negative rho (up, down):  1.380E+00 0.000E+00
          total   stress  (Ry/bohr**3)                   (kbar)     P=  -29.85
  -0.00017334   0.00000002   0.00000001        -25.50      0.00      0.00
   0.00000002  -0.00017335   0.00000000          0.00    -25.50      0.00
   0.00000001   0.00000000  -0.00026206          0.00      0.00    -38.55

     BFGS Geometry Optimization

     number of scf cycles    =   1
     number of bfgs steps    =   0

     energy   new            =   -1959.3454872524 Ry

     new trust radius        =       0.1743493194 bohr
     new conv_thr            =       0.0000099958 Ry

ATOMIC_POSITIONS (crystal)
Hf1      0.166666667   0.166666667   0.396510335    0   0   0
Hf1      0.666666667   0.166666667   0.396510335    0   0   0
Hf1      0.166666667   0.666666667   0.396510335    0   0   0
Hf1      0.666666667   0.666666667   0.396510335    0   0   0
Hf1      0.833333333   0.333333333   0.500000000    0   0   0
Hf1      0.333333333   0.333333333   0.500000000    0   0   0
Hf1      0.833333333   0.833333333   0.500000000    0   0   0
Hf1      0.333333333   0.833333333   0.500000000    0   0   0
Hf1      0.001821192   0.001817695   0.604371431
Hf1      0.496360016   0.001816126   0.604371293
Hf1      0.001817173   0.496361532   0.604371762
Hf1      0.500001834   0.500005067   0.602576806
O1       0.166666683   0.166666498   0.661944738

     Writing output data file calc.save
     Check: negative starting charge=   -1.301681
     NEW-OLD atomic charge density approx. for the potential

     Check: negative/imaginary core charge=   -0.000003    0.000000
     Check: negative starting charge=   -1.299624

[...]

     energy   old            =   -1959.3454872525 Ry
     energy   new            =   -1959.3852826255 Ry

     CASE: energy  _new < energy  _old

     WARNING: bfgs curvature condition failed, Theta= 0.897
     new trust radius        =       0.2615239792 bohr
     new conv_thr            =       0.0000001000 Ry

[...]

     WARNING: bfgs curvature condition failed, Theta= 0.956
     new trust radius        =       0.0443057839 bohr
     new conv_thr            =       0.0000001000 Ry

[...]

     iteration #  1     ecut=    36.75 Ry     beta=0.30
     Davidson diagonalization with overlap
     c_bands:  1 eigenvalues not converged
     c_bands:  1 eigenvalues not converged
     c_bands:  1 eigenvalues not converged
     ethr =  1.00E-06,  avg # of iterations = 16.6

[...]

     number of scf cycles    =  14
     number of bfgs steps    =  13

     energy   old            =   -1959.4845312226 Ry
     energy   new            =   -1959.4845818502 Ry

     CASE: energy  _new < energy  _old

     new trust radius        =       0.0165280649 bohr
     new conv_thr            =       0.0000001000 Ry

ATOMIC_POSITIONS (crystal)
Hf1      0.166666667   0.166666667   0.396510335    0   0   0
Hf1      0.666666667   0.166666667   0.396510335    0   0   0
Hf1      0.166666667   0.666666667   0.396510335    0   0   0
Hf1      0.666666667   0.666666667   0.396510335    0   0   0
Hf1      0.833333333   0.333333333   0.500000000    0   0   0
Hf1      0.333333333   0.333333333   0.500000000    0   0   0
Hf1      0.833333333   0.833333333   0.500000000    0   0   0
Hf1      0.333333333   0.833333333   0.500000000    0   0   0
Hf1      0.001000626   0.000999649   0.600536734
Hf1      0.497970117   0.001020510   0.600540533
Hf1      0.001020806   0.497970449   0.600540747
Hf1      0.500006721   0.500008080   0.593460949
O1       0.166676758   0.166676653   0.638367581

     Writing output data file calc.save
     Check: negative starting charge=   -1.300694
     NEW-OLD atomic charge density approx. for the potential

     Check: negative/imaginary core charge=   -0.000003    0.000000
     Check: negative starting charge=   -1.300812

[...]

     Self-consistent Calculation

[...]

     total energy              =   -1959.48462217 Ry
     Harris-Foulkes estimate   =   -1959.48462221 Ry
     estimated scf accuracy    <       0.00000012 Ry

     iteration # 10     ecut=    36.75 Ry     beta=0.30
     Davidson diagonalization with overlap
     ethr =  8.24E-11,  avg # of iterations =  4.5

[...]

     negative rho (up, down):  1.379E+00 0.000E+00

     Adding external electric field

     Computed dipole along edir(3) :
        Dipole                0.0842 Ry au,          0.2139 Debye
        Dipole field          0.0002 Ry au

        Potential amp.       -0.0163 Ry
        Total length         46.4675 bohr

     End of self-consistent calculation

[...]

          k = 0.0521-0.0602 0.0000 ( 22643 PWs)   bands (ev):

[...]

          k =-0.0782-0.0452 0.0000 ( 22668 PWs)   bands (ev):

   -61.1435 -61.1432 -61.1264 -61.1261 -61.0849 -61.0753 -61.0657 -60.9167
   -60.5972 -60.5927 -60.5789 -60.5763 -29.9400 -29.8111 -29.8087 -29.7723
   -29.7626 -29.7364 -29.7271 -29.7127 -29.7032 -29.6984 -29.6773 -29.6748
   -29.6464 -29.6383 -29.6213 -29.6001 -29.5995 -29.5881 -29.5808 -29.4757
   -29.4338 -29.4330 -29.4142 -29.3330 -29.2587 -29.2260 -29.1225 -29.1128
   -29.0873 -29.0774 -29.0556 -29.0552 -29.0504 -29.0216 -28.9289 -28.9185
   -17.7675  -4.5558  -4.1968  -3.8281  -3.3347  -3.1908  -2.1059  -1.8183
    -1.1545  -1.1269  -0.8262  -0.6297  -0.5351  -0.4955   0.3000   0.3640
     0.4157   0.5175   0.6084   0.6307   0.8015   0.8729   0.9738   1.0174
     1.0509   1.0904   1.2033   1.2878   1.3766   1.4648   1.4916   1.6452
     1.7591   1.9169   2.0001   2.3999   2.4341

     the Fermi energy is     1.4727 ev

!    total energy              =   -1959.48462214 Ry
     Harris-Foulkes estimate   =   -1959.48462166 Ry
     estimated scf accuracy    <       0.00000007 Ry

     The total energy is the sum of the following terms:

     one-electron contribution =   -8912.00308687 Ry
     hartree contribution      =    4442.22973250 Ry
     xc contribution           =    -935.70678495 Ry
     ewald contribution        =    3446.10316722 Ry
     electric field correction =       0.00001478 Ry
     smearing contrib. (-TS)   =      -0.10766482 Ry

     convergence has been achieved in  10 iterations

 BEEF-vdW xc energy contributions
           1 :   -845.911956087798
           2 :    786.094873898094
           3 :   -680.062255048363
           4 :    549.710057046748
           5 :   -417.745529816807
           6 :    301.315771978495
           7 :   -209.180133179423
           8 :    142.560447328073
           9 :   -98.1542047458388
          10 :    71.1443870011424
          11 :   -56.8517600714488
          12 :    50.9160012443020
          13 :   -48.9211506377437
          14 :    46.4323688336599
          15 :   -39.8292886113029
          16 :    27.4801518525315
          17 :   -10.4412315796565
          18 :   -7.92428013138351
          19 :    23.3425671914603
          20 :   -32.3944019488267
          21 :    33.7841167968261
          22 :   -28.5803583515035
          23 :    19.4700903142545
          24 :   -9.57446327426055
          25 :    1.46185797364194
          26 :    3.28370776308554
          27 :   -4.01812348208296
          28 :   0.835472134551765
          29 :    5.51922385357193
          30 :   -13.6218473978781
          31 :   -60.9400887606522
          32 :   -43.8027140736982

     Forces acting on atoms (Ry/au):

     negative rho (up, down):  1.379E+00 0.000E+00
     atom    1 type  1   force =     0.00000645    0.00000394    0.01755881
     atom    2 type  1   force =     0.00001410    0.00054781    0.02199068
     atom    3 type  1   force =     0.00048123   -0.00026181    0.02199062
     atom    4 type  1   force =    -0.00045444   -0.00026258    0.02199540
     atom    5 type  1   force =     0.00413377   -0.00237173   -0.02091371
     atom    6 type  1   force =    -0.00410491   -0.00236960   -0.02088544
     atom    7 type  1   force =     0.00000248    0.00000096   -0.02040158
     atom    8 type  1   force =     0.00001258    0.00476603   -0.02091495
     atom    9 type  1   force =    -0.00114047   -0.00065720   -0.00017673
     atom   10 type  1   force =     0.00114424   -0.00071397   -0.00021025
     atom   11 type  1   force =    -0.00004716    0.00134700   -0.00021105
     atom   12 type  1   force =     0.00001641    0.00000824    0.00070026
     atom   13 type  2   force =    -0.00006429   -0.00003709   -0.00052205

     Total force =     0.002501     Total SCF correction =     0.000244

     entering subroutine stress ...

     negative rho (up, down):  1.379E+00 0.000E+00
          total   stress  (Ry/bohr**3)                   (kbar)     P=  -14.70
  -0.00010228  -0.00000001  -0.00000002        -15.05     -0.00     -0.00
  -0.00000001  -0.00010226  -0.00000001         -0.00    -15.04     -0.00
  -0.00000002  -0.00000001  -0.00009525         -0.00     -0.00    -14.01

     bfgs converged in  15 scf cycles and  14 bfgs steps
     (criteria: energy <  1.0E+00, force <  1.9E-03)

     End of BFGS Geometry Optimization

     Final energy   =   -1959.4846221406 Ry
Begin final coordinates

ATOMIC_POSITIONS (crystal)
Hf1      0.166666667   0.166666667   0.396510335    0   0   0
Hf1      0.666666667   0.166666667   0.396510335    0   0   0
Hf1      0.166666667   0.666666667   0.396510335    0   0   0
Hf1      0.666666667   0.666666667   0.396510335    0   0   0
Hf1      0.833333333   0.333333333   0.500000000    0   0   0
Hf1      0.333333333   0.333333333   0.500000000    0   0   0
Hf1      0.833333333   0.833333333   0.500000000    0   0   0
Hf1      0.333333333   0.833333333   0.500000000    0   0   0
Hf1      0.001000626   0.000999649   0.600536734
Hf1      0.497970117   0.001020510   0.600540533
Hf1      0.001020806   0.497970449   0.600540747
Hf1      0.500006721   0.500008080   0.593460949
O1       0.166676758   0.166676653   0.638367581
End final coordinates

     Writing output data file calc.save

     General routines

     Parallel routines

   This run was terminated on:  20: 2:36   3May2018

   JOB DONE.
Job  /afs/slac/g/suncat/bin/suncat-tsmpirun -x LD_LIBRARY_PATH -wdir /scratch/qe793225_Gs9vd pw.x -npool 4 -in pw.inp

TID   HOST_NAME   COMMAND_LINE            STATUS            TERMINATION_TIME
00000 suncat0070 pw.x -npool 4 -i  Done                     05/03/2018 20:02:36
00001 suncat0070 pw.x -npool 4 -i  Done                     05/03/2018 20:02:36
00002 suncat0070 pw.x -npool 4 -i  Done                     05/03/2018 20:02:36
00003 suncat0070 pw.x -npool 4 -i  Done                     05/03/2018 20:02:36
00004 suncat0070 pw.x -npool 4 -i  Done                     05/03/2018 20:02:36
00005 suncat0070 pw.x -npool 4 -i  Done                     05/03/2018 20:02:36
00006 suncat0070 pw.x -npool 4 -i  Done                     05/03/2018 20:02:36
00007 suncat0070 pw.x -npool 4 -i  Done                     05/03/2018 20:02:36
00008 suncat0049 pw.x -npool 4 -i  Done                     05/03/2018 20:02:36
00009 suncat0049 pw.x -npool 4 -i  Done                     05/03/2018 20:02:36
00010 suncat0049 pw.x -npool 4 -i  Done                     05/03/2018 20:02:36
00011 suncat0049 pw.x -npool 4 -i  Done                     05/03/2018 20:02:36
00012 suncat0049 pw.x -npool 4 -i  Done                     05/03/2018 20:02:36
00013 suncat0049 pw.x -npool 4 -i  Done                     05/03/2018 20:02:36
00014 suncat0049 pw.x -npool 4 -i  Done                     05/03/2018 20:02:36
00015 suncat0049 pw.x -npool 4 -i  Done                     05/03/2018 20:02:36
00016 suncat0182 pw.x -npool 4 -i  Done                     05/03/2018 20:02:36
00017 suncat0182 pw.x -npool 4 -i  Done                     05/03/2018 20:02:36
00018 suncat0182 pw.x -npool 4 -i  Done                     05/03/2018 20:02:36
00019 suncat0182 pw.x -npool 4 -i  Done                     05/03/2018 20:02:36
00020 suncat0182 pw.x -npool 4 -i  Done                     05/03/2018 20:02:36
00021 suncat0182 pw.x -npool 4 -i  Done                     05/03/2018 20:02:36
00022 suncat0182 pw.x -npool 4 -i  Done                     05/03/2018 20:02:36
00023 suncat0182 pw.x -npool 4 -i  Done                     05/03/2018 20:02:36
00024 suncat0173 pw.x -npool 4 -i  Done                     05/03/2018 20:02:36
00025 suncat0173 pw.x -npool 4 -i  Done                     05/03/2018 20:02:36
00026 suncat0173 pw.x -npool 4 -i  Done                     05/03/2018 20:02:36
00027 suncat0173 pw.x -npool 4 -i  Done                     05/03/2018 20:02:36
00028 suncat0173 pw.x -npool 4 -i  Done                     05/03/2018 20:02:36
00029 suncat0173 pw.x -npool 4 -i  Done                     05/03/2018 20:02:36
00030 suncat0173 pw.x -npool 4 -i  Done                     05/03/2018 20:02:36
00031 suncat0173 pw.x -npool 4 -i  Done                     05/03/2018 20:02:36