     Program PWSCF v.5.1rc2 (svn rev. 11289) starts on 21Apr2018 at 13:42: 8

     Current dimensions of program PWSCF are:
     Max number of different atomic species (ntypx) = 10
     Max number of k-points (npk) =  40000
     Max angular momentum in pseudopotentials (lmaxx) =  3
     Presently stress not available with electric field

     IMPORTANT: XC functional enforced from input :
     Exchange-correlation      = BEEF-VDW ( 1  4 27 13 2)
     Any further DFT definition will be discarded
     Please, verify this is what you really want

     Subspace diagonalization in iterative solution of the eigenvalue problem:
     a serial algorithm will be used

     bravais-lattice index     =            0
     lattice parameter (alat)  =       1.8897  a.u.
     unit-cell volume          =    7171.5276 (a.u.)^3
     number of atoms/cell      =           14
     number of atomic types    =            3
     number of electrons       =       174.00
     number of Kohn-Sham states=           97
     kinetic-energy cutoff     =      36.7493  Ry
     charge density cutoff     =     367.4932  Ry
     convergence threshold     =      1.0E-05
     mixing beta               =       0.3000
     number of iterations used =           10  plain     mixing
     Exchange-correlation      = BEEF-VDW ( 1  4 27 13 2)
     nstep                     =           50

     celldm(1)=   1.889726  celldm(2)=   0.000000  celldm(3)=   0.000000
     celldm(4)=   0.000000  celldm(5)=   0.000000  celldm(6)=   0.000000

     crystal axes: (cart. coord. in units of alat)
               a(1) = (   6.917003   0.000000   0.000000 )
               a(2) = (   3.458501   5.990300   0.000000 )
               a(3) = (   0.000000   0.000000  25.647709 )

     reciprocal axes: (cart. coord. in units 2 pi/alat)
               b(1) = (  0.144571 -0.083468  0.000000 )
               b(2) = (  0.000000  0.166937  0.000000 )
               b(3) = (  0.000000  0.000000  0.038990 )

     PseudoPot. # 1 for Pb read from file:
     /u/if/mamunm/psp/gbrv1.5pbe/Pb.UPF
     MD5 check sum: 3d1c1779aa92214d1e8f3a7db79003e2
     Pseudo is Ultrasoft + core correction, Zval = 14.0
     Generated by new atomic code, or converted to UPF format
     Using radial grid of  899 points,  6 beta functions with:
                l(1) =   0
                l(2) =   0
                l(3) =   1
                l(4) =   1
                l(5) =   2
                l(6) =   2
     Q(r) pseudized with  6 coefficients,  rinner =    1.000   1.000   1.000
                                                       1.000   1.000

     PseudoPot. # 2 for N  read from file:
     /u/if/mamunm/psp/gbrv1.5pbe/N.UPF
     MD5 check sum: 95339753478d7afb44899504a8723017
     Pseudo is Ultrasoft + core correction, Zval =  5.0
     Generated by new atomic code, or converted to UPF format
     Using radial grid of  729 points,  4 beta functions with:
                l(1) =   0
                l(2) =   0
                l(3) =   1
                l(4) =   1
     Q(r) pseudized with  8 coefficients,  rinner =    0.900   0.900   0.900

     PseudoPot. # 3 for H  read from file:
     /u/if/mamunm/psp/gbrv1.5pbe/H.UPF
     MD5 check sum: 761ae9a214b05c3daf00ab9f6b793d6f
     Pseudo is Ultrasoft, Zval =  1.0
     Generated by new atomic code, or converted to UPF format
     Using radial grid of  615 points,  2 beta functions with:
                l(1) =   0
                l(2) =   0
     Q(r) pseudized with  8 coefficients,  rinner =    0.700

     vdW kernel table read from file vdW_kernel_table
     MD5 check sum: 095c7af220d748ca6e76c0b4c6cfb241

     atomic species   valence    mass     pseudopotential
        Pb1           14.00   207.20000     Pb( 1.00)
        N1             5.00    14.00700     N ( 1.00)
        H1             1.00     1.00800     H ( 1.00)

     No symmetry found

   Cartesian axes

     site n.     atom                  positions (alat units)
         1           Pb1 tau(   1) = (   1.7292506   0.9983833  10.0000000  )
         2           Pb1 tau(   2) = (   5.1877519   0.9983833  10.0000000  )
         3           Pb1 tau(   3) = (   3.4585013   3.9935333  10.0000000  )
         4           Pb1 tau(   4) = (   6.9170025   3.9935333  10.0000000  )
         5           Pb1 tau(   5) = (   6.9170025   1.9967666  12.8238544  )
         6           Pb1 tau(   6) = (   3.4585013   1.9967666  12.8238544  )
         7           Pb1 tau(   7) = (   8.6462531   4.9919166  12.8238544  )
         8           Pb1 tau(   8) = (   5.1877519   4.9919166  12.8238544  )
         9           Pb1 tau(   9) = (   0.0000000   0.0000000  15.6477089  )
        10           Pb1 tau(  10) = (   3.4585013   0.0000000  15.6477089  )
        11           Pb1 tau(  11) = (   1.7292506   2.9951499  15.6477089  )
        12           Pb1 tau(  12) = (   5.1877519   2.9951499  15.6477089  )
        13           N1  tau(  13) = (   1.7292506   0.9983833  17.0582089  )
        14           H1  tau(  14) = (   1.7292506   0.9983833  18.1082089  )

     number of k points=    20  Fermi-Dirac smearing, width (Ry)=  0.0110
                       cart. coord. in units 2pi/alat
        k(    1) = (   0.0000000   0.0000000   0.0000000), wk =   0.0555556
        k(    2) = (   0.0000000   0.0278228   0.0000000), wk =   0.1111111
        k(    3) = (   0.0000000   0.0556455   0.0000000), wk =   0.1111111
        k(    4) = (   0.0000000  -0.0834683   0.0000000), wk =   0.0555556
        k(    5) = (   0.0240952  -0.0139114   0.0000000), wk =   0.1111111
        k(    6) = (   0.0240952   0.0139114   0.0000000), wk =   0.1111111
        k(    7) = (   0.0240952   0.0417341   0.0000000), wk =   0.1111111
        k(    8) = (   0.0240952  -0.0973797   0.0000000), wk =   0.1111111
        k(    9) = (   0.0240952  -0.0695569   0.0000000), wk =   0.1111111
        k(   10) = (   0.0240952  -0.0417341   0.0000000), wk =   0.1111111
        k(   11) = (   0.0481904  -0.0278228   0.0000000), wk =   0.1111111
        k(   12) = (   0.0481904   0.0000000   0.0000000), wk =   0.1111111
        k(   13) = (   0.0481904   0.0278228   0.0000000), wk =   0.1111111
        k(   14) = (   0.0481904  -0.1112910   0.0000000), wk =   0.1111111
        k(   15) = (   0.0481904  -0.0834683   0.0000000), wk =   0.1111111
        k(   16) = (   0.0481904  -0.0556455   0.0000000), wk =   0.1111111
        k(   17) = (  -0.0722856   0.0417341   0.0000000), wk =   0.0555556
        k(   18) = (  -0.0722856   0.0695569   0.0000000), wk =   0.1111111
        k(   19) = (  -0.0722856   0.0973797   0.0000000), wk =   0.1111111
        k(   20) = (  -0.0722856  -0.0417341   0.0000000), wk =   0.0555556

     Largest allocated arrays     est. size (Mb)     dimensions
     Largest temporary arrays     est. size (Mb)     dimensions

     Check: negative/imaginary core charge=   -0.000001    0.000000

     Initial potential from superposition of free atoms
     Check: negative starting charge=   -0.198001

     starting charge  173.97176, renormalised to  174.00000

     negative rho (up, down):  1.980E-01 0.000E+00

     *
     * You are using vdW-DF for exchange-correlation in this calculation.
     * Please cite the following three references that made this development
     * possible:
     *
     *   M. Dion, H. Rydberg, E. Schroder, D. C. Langreth, and
     *   B. I. Lundqvist, Phys. Rev. Lett. 92, 246401 (2004).
     *
     *   T. Thonhauser, V. R. Cooper, S. Li, A. Puzder, P. Hyldgaard, and
     *   D. C. Langreth, Phys. Rev. B 76, 125112 (2007).
     *
     *   G. Roman-Perez and J. M. Soler, Phys. Rev. Lett. 103, 096102 (2009).
     *
     *
     * If you are using vdW-DF2, please also cite:
     *
     *   K. Lee, E. D. Murray, L. Kong, B. I. Lundqvist, and
     *   D. C. Langreth, Phys. Rev. B 82, 081101(R) (2010).
     *
     *
     * If you are calculating the stress with vdW-DF, please also cite:
     *
     *   R. Sabatini, E. Kucukbenli, B. Kolb, T. Thonhauser, and
     *   S. de Gironcoli, J. Phys.: Condens. Matter 24, 424209 (2012).
     *

     Carrying out vdW-DF run using the following parameters:

     Nqs =      20    Nr_points =    1024   r_max =   100.000
     q_mesh =
               0.00001000     0.04494208     0.09755937     0.15916263
               0.23128650     0.31572767     0.41458969     0.53033537
               0.66584808     0.82450364     1.01025438     1.22772762
               1.48234092     1.78043706     2.12944203     2.53805004
               3.01644009     3.57652955     4.23227104     5.00000000

     Gradients computed in reciprocal space

     Adding external electric field

     Computed dipole along edir(3) :
        Dipole               -0.0080 Ry au,         -0.0202 Debye
        Dipole field         -0.0000 Ry au

        Potential amp.        0.0013 Ry
        Total length         47.2555 bohr

     Starting wfc are  113 randomized atomic wfcs

     Self-consistent Calculation

     iteration #  1     ecut=    36.75 Ry     beta=0.30
     Davidson diagonalization with overlap
     ethr =  1.00E-02,  avg # of iterations =  2.0

[...]

     total energy              =   -2013.14864885 Ry
     Harris-Foulkes estimate   =   -2013.97252939 Ry
     estimated scf accuracy    <       1.81913872 Ry

[...]

     End of self-consistent calculation

          k = 0.0000 0.0000 0.0000 ( 27033 PWs)   bands (ev):

   -16.3748 -16.3387 -16.3387 -16.3173 -16.2837 -16.2837 -16.2496 -16.2487
   -16.2487 -16.2458 -16.2330 -16.2258 -16.2258 -16.2123 -16.2029 -16.2029
   -16.1878 -16.1821 -16.1821 -16.1767 -16.1756 -16.1756 -16.1672 -16.1643
   -16.1643 -16.1591 -16.1591 -16.1442 -16.1442 -16.1389 -16.0642 -16.0642
   -16.0551 -16.0551 -16.0515 -16.0301 -16.0151 -16.0151 -16.0074 -16.0074
   -15.9626 -15.9508 -15.9508 -15.9396 -15.9379 -15.9379 -15.9343 -15.9343
   -15.9277 -15.9277 -15.9261 -15.9225 -15.8992 -15.8992 -15.8972 -15.8972
   -15.8920 -15.8772 -15.8772 -15.8664 -13.2692 -10.2589  -9.1009  -7.6398
    -6.7885  -6.7885  -6.7721  -6.3907  -6.3907  -6.3564  -5.7847  -5.7350
    -5.7350  -4.0730  -2.6059  -2.6059  -2.3055  -1.8617  -1.5596  -1.5596
    -1.3987  -1.3987  -1.3716  -0.0262  -0.0262   0.1648   1.1322   2.4317
     2.4402   2.4403   2.8898   3.1692   3.1692   3.4760   3.8492   3.9849
     3.9849

[...]

          k =-0.0723 0.0417 0.0000 ( 26962 PWs)   bands (ev):

[...]

     the Fermi energy is     1.2893 ev

!    total energy              =   -2013.66944141 Ry
     Harris-Foulkes estimate   =   -2013.66945883 Ry
     estimated scf accuracy    <       0.00000922 Ry

     The total energy is the sum of the following terms:

     one-electron contribution =   -9698.47616777 Ry
     hartree contribution      =    4921.96526296 Ry
     xc contribution           =    -790.19394892 Ry
     ewald contribution        =    3553.07993181 Ry
     electric field correction =       0.00000033 Ry
     smearing contrib. (-TS)   =      -0.04451982 Ry

     convergence has been achieved in  10 iterations

 BEEF-vdW xc energy contributions
           1 :   -704.194303307448
           2 :    653.954794785050
           3 :   -565.536075207666
           4 :    458.338018028467
           5 :   -352.324799756215
           6 :    262.077194748011
           7 :   -193.668394724638
           8 :    145.080975368394
           9 :   -109.482548731889
          10 :    79.5823165094787
          11 :   -51.0540067624756
          12 :    23.6944227053461
          13 :  -0.244186632341325
          14 :   -16.0855135003465
          15 :    23.8861282861451
          16 :   -24.4862441362856
          17 :    21.2546053231338
          18 :   -17.8692621859783
          19 :    16.6095885098248
          20 :   -17.5792369909443
          21 :    19.1622867838253
          22 :   -19.3279608924768
          23 :    16.9799726409562
          24 :   -12.6057093788709
          25 :    7.93569883609086
          26 :   -4.90120190749349
          27 :    4.53822844600995
          28 :   -6.45868518871384
          29 :    9.14264859353875
          30 :   -10.8375494676991
          31 :   -56.5048940831454
          32 :   -41.4112081025511

     Forces acting on atoms (Ry/au):

     negative rho (up, down):  2.146E-01 0.000E+00
     atom    1 type  1   force =     0.00002865   -0.00004477   -0.01032842
     atom    2 type  1   force =    -0.00002085   -0.00452346   -0.00790757
     atom    3 type  1   force =    -0.00391167    0.00226173   -0.00790075
     atom    4 type  1   force =     0.00392448    0.00228643   -0.00787982
     atom    5 type  1   force =     0.00136283   -0.00080218   -0.00097349
     atom    6 type  1   force =    -0.00141790   -0.00076011   -0.00096633
     atom    7 type  1   force =    -0.00003160    0.00000129   -0.02556168
     atom    8 type  1   force =    -0.00001422    0.00156278   -0.00099209
     atom    9 type  1   force =     0.00861402    0.00498162    0.02944800
     atom   10 type  1   force =    -0.00857438    0.00494794    0.02943976
     atom   11 type  1   force =     0.00001970   -0.00991964    0.02945245
     atom   12 type  1   force =     0.00002256   -0.00000772    0.00960454
     atom   13 type  2   force =    -0.00000148    0.00000858   -0.00191433
     atom   14 type  3   force =    -0.00000015    0.00000751   -0.03352028

     Total force =     0.064158     Total SCF correction =     0.006592
     SCF correction compared to forces is large: reduce conv_thr to get better values

     entering subroutine stress ...

     negative rho (up, down):  2.146E-01 0.000E+00
          total   stress  (Ry/bohr**3)                   (kbar)     P=   10.91
   0.00008615  -0.00000000   0.00000000         12.67     -0.00      0.00
  -0.00000000   0.00008615   0.00000000         -0.00     12.67      0.00
   0.00000000   0.00000000   0.00005012          0.00      0.00      7.37

     BFGS Geometry Optimization

     number of scf cycles    =   1
     number of bfgs steps    =   0

     energy   new            =   -2013.6694414149 Ry

     new trust radius        =       0.0335202806 bohr
     new conv_thr            =       0.0000099958 Ry

ATOMIC_POSITIONS (crystal)
Pb1      0.166666667   0.166666667   0.389898374    0   0   0
Pb1      0.666666667   0.166666667   0.389898374    0   0   0
Pb1      0.166666667   0.666666667   0.389898374    0   0   0
Pb1      0.666666667   0.666666667   0.389898374    0   0   0
Pb1      0.833333333   0.333333333   0.500000000    0   0   0
Pb1      0.333333333   0.333333333   0.500000000    0   0   0
Pb1      0.833333333   0.833333333   0.500000000    0   0   0
Pb1      0.333333333   0.833333333   0.500000000    0   0   0
Pb1      0.000438970   0.000440071   0.610709213
Pb1      0.499125479   0.000437096   0.610709043
Pb1      0.000439652   0.499123709   0.610709304
Pb1      0.500002067   0.499999318   0.610299792
N1       0.166666174   0.166667425   0.665057294
H1       0.166666323   0.166667330   0.705344512

     Writing output data file calc.save
     Check: negative starting charge=   -0.198001
     NEW-OLD atomic charge density approx. for the potential

     Check: negative/imaginary core charge=   -0.000001    0.000000
     Check: negative starting charge=   -0.196667

[...]

     Total force =     0.059515     Total SCF correction =     0.005116

[...]

     energy   old            =   -2013.6694414149 Ry
     energy   new            =   -2013.6731969735 Ry

     CASE: energy  _new < energy  _old

     WARNING: bfgs curvature condition failed, Theta= 0.983
     new trust radius        =       0.0502804208 bohr
     new conv_thr            =       0.0000001000 Ry

[...]

     Threshold (ethr) on eigenvalues was too large:
     Diagonalizing with lowered threshold

     Davidson diagonalization with overlap
     ethr =  9.95E-09,  avg # of iterations =  3.0

[...]

     CASE: energy  _new > energy  _old

[...]

     WARNING: bfgs curvature condition failed, Theta= 0.852
     new trust radius        =       0.0284084507 bohr
     new conv_thr            =       0.0000001000 Ry

[...]

     Total force =     0.005654     Total SCF correction =     0.000413

[...]

     WARNING: bfgs curvature condition failed, Theta= 0.641
     uphill step: resetting bfgs history

[...]

     CASE: energy  _new > energy  _old

[...]

     new trust radius        =       0.0041766283 bohr
     new conv_thr            =       0.0000001000 Ry

ATOMIC_POSITIONS (crystal)
Pb1      0.166666667   0.166666667   0.389898374    0   0   0
Pb1      0.666666667   0.166666667   0.389898374    0   0   0
Pb1      0.166666667   0.666666667   0.389898374    0   0   0
Pb1      0.666666667   0.666666667   0.389898374    0   0   0
Pb1      0.833333333   0.333333333   0.500000000    0   0   0
Pb1      0.333333333   0.333333333   0.500000000    0   0   0
Pb1      0.833333333   0.833333333   0.500000000    0   0   0
Pb1      0.333333333   0.833333333   0.500000000    0   0   0
Pb1      0.000576660   0.000570876   0.629496636
Pb1      0.498875196   0.000571008   0.629496690
Pb1      0.000578231   0.498868844   0.629496182
Pb1      0.500008858   0.500004318   0.612983134
N1       0.166679628   0.166669212   0.677690895
H1       0.166678120   0.166671719   0.717619983

     Writing output data file calc.save
     Check: negative starting charge=   -0.197144
     NEW-OLD atomic charge density approx. for the potential

     Check: negative/imaginary core charge=   -0.000001    0.000000
     Check: negative starting charge=   -0.197111

[...]

     Self-consistent Calculation

[...]

     Threshold (ethr) on eigenvalues was too large:
     Diagonalizing with lowered threshold

     Davidson diagonalization with overlap
     ethr =  1.21E-08,  avg # of iterations =  4.0

[...]

     total energy              =   -2013.69843391 Ry
     Harris-Foulkes estimate   =   -2013.69843440 Ry
     estimated scf accuracy    <       0.00000021 Ry

     iteration #  5     ecut=    36.75 Ry     beta=0.30
     Davidson diagonalization with overlap
     ethr =  1.22E-10,  avg # of iterations =  3.0

[...]

     negative rho (up, down):  2.129E-01 0.000E+00

     Adding external electric field

     Computed dipole along edir(3) :
        Dipole                0.1078 Ry au,          0.2741 Debye
        Dipole field          0.0002 Ry au

        Potential amp.       -0.0179 Ry
        Total length         47.2555 bohr

     End of self-consistent calculation

[...]

          k = 0.0482-0.0556 0.0000 ( 26956 PWs)   bands (ev):

[...]

          k =-0.0723-0.0417 0.0000 ( 26962 PWs)   bands (ev):

   -16.3964 -16.1820 -16.1687 -16.1542 -16.1235 -16.1167 -16.1152 -16.1122
   -16.1066 -16.1042 -16.0968 -16.0899 -16.0851 -16.0828 -16.0689 -16.0611
   -16.0590 -16.0505 -16.0488 -16.0406 -16.0406 -16.0381 -16.0312 -16.0286
   -16.0261 -16.0192 -16.0153 -16.0151 -16.0109 -16.0056 -16.0016 -15.9976
   -15.9816 -15.9785 -15.9758 -15.9675 -15.9636 -15.9634 -15.9584 -15.9568
   -15.9398 -15.9362 -15.9259 -15.9252 -15.9196 -15.9172 -15.9135 -15.9060
   -15.8993 -15.8908 -15.8882 -15.8810 -15.8763 -15.8728 -15.8662 -15.8648
   -15.8436 -15.8392 -15.8096 -15.8081 -13.7288  -8.9291  -8.8550  -7.9984
    -7.9083  -7.0105  -6.9518  -6.9482  -6.8840  -6.4814  -6.3060  -5.6445
    -5.5884  -3.5849  -1.8179  -1.1619  -0.6857  -0.5605  -0.4780  -0.4593
    -0.2804  -0.2249   0.1878   0.9018   0.9372   1.0449   1.3161   1.5391
     1.9560   2.1134   2.2864   2.3285   2.5357   2.6850   2.6950   2.7491
     3.3031

     the Fermi energy is     1.3686 ev

!    total energy              =   -2013.69843342 Ry
     Harris-Foulkes estimate   =   -2013.69843388 Ry
     estimated scf accuracy    <       0.00000003 Ry

     The total energy is the sum of the following terms:

     one-electron contribution =   -9153.77002500 Ry
     hartree contribution      =    4649.98713854 Ry
     xc contribution           =    -790.06881955 Ry
     ewald contribution        =    3280.19443120 Ry
     electric field correction =       0.00002037 Ry
     smearing contrib. (-TS)   =      -0.04117899 Ry

     convergence has been achieved in   5 iterations

 BEEF-vdW xc energy contributions
           1 :   -704.054147219243
           2 :    653.679248849593
           3 :   -565.093039544792
           4 :    457.839391775487
           5 :   -351.968595019303
           6 :    262.018371643972
           7 :   -193.902881219367
           8 :    145.427258110206
           9 :   -109.681624651987
          10 :    79.4561653460430
          11 :   -50.6218629012699
          12 :    23.1706537505704
          13 :   8.463561901101002E-002
          14 :   -16.0321204670058
          15 :    23.4799371117904
          16 :   -23.9625803489276
          17 :    20.9184510942601
          18 :   -17.9153587359938
          19 :    17.0073413226348
          20 :   -18.0911582334209
          21 :    19.4852340306700
          22 :   -19.2729802404657
          23 :    16.5832277337574
          24 :   -12.1044342532496
          25 :    7.62443891972407
          26 :   -4.95577906958772
          27 :    4.91282972221734
          28 :   -6.91583227869933
          29 :    9.39766491544378
          30 :   -10.7301478881201
          31 :   -56.4887426795940
          32 :   -41.3586240366567

     Forces acting on atoms (Ry/au):

     negative rho (up, down):  2.129E-01 0.000E+00
     atom    1 type  1   force =     0.00000072    0.00000034   -0.00952306
     atom    2 type  1   force =    -0.00000025   -0.00394445   -0.00640431
     atom    3 type  1   force =    -0.00341559    0.00197173   -0.00640511
     atom    4 type  1   force =     0.00341603    0.00197215   -0.00640342
     atom    5 type  1   force =     0.00204282   -0.00117902    0.01036971
     atom    6 type  1   force =    -0.00204296   -0.00117950    0.01036908
     atom    7 type  1   force =     0.00000060    0.00000034   -0.00324088
     atom    8 type  1   force =     0.00000042    0.00235867    0.01036883
     atom    9 type  1   force =    -0.00144505   -0.00083329   -0.00048183
     atom   10 type  1   force =     0.00144841   -0.00083699   -0.00048421
     atom   11 type  1   force =    -0.00000123    0.00166901   -0.00048278
     atom   12 type  1   force =    -0.00000046   -0.00000057   -0.00077768
     atom   13 type  2   force =    -0.00000334    0.00000212    0.00112390
     atom   14 type  3   force =    -0.00000014   -0.00000055    0.00197174

     Total force =     0.003850     Total SCF correction =     0.000869
     SCF correction compared to forces is large: reduce conv_thr to get better values

     entering subroutine stress ...

     negative rho (up, down):  2.129E-01 0.000E+00
          total   stress  (Ry/bohr**3)                   (kbar)     P=    7.38
   0.00006400  -0.00000000  -0.00000000          9.41     -0.00     -0.00
  -0.00000000   0.00006400   0.00000000         -0.00      9.41      0.00
  -0.00000000   0.00000000   0.00002259         -0.00      0.00      3.32

     number of scf cycles    =  50
     number of bfgs steps    =  41

     energy   old            =   -2013.6984290196 Ry
     energy   new            =   -2013.6984334230 Ry

     CASE: energy  _new < energy  _old

     new trust radius        =       0.0023543822 bohr

     The maximum number of steps has been reached.

     End of BFGS Geometry Optimization
Begin final coordinates

ATOMIC_POSITIONS (crystal)
Pb1      0.166666667   0.166666667   0.389898374    0   0   0
Pb1      0.666666667   0.166666667   0.389898374    0   0   0
Pb1      0.166666667   0.666666667   0.389898374    0   0   0
Pb1      0.666666667   0.666666667   0.389898374    0   0   0
Pb1      0.833333333   0.333333333   0.500000000    0   0   0
Pb1      0.333333333   0.333333333   0.500000000    0   0   0
Pb1      0.833333333   0.833333333   0.500000000    0   0   0
Pb1      0.333333333   0.833333333   0.500000000    0   0   0
Pb1      0.000531952   0.000526405   0.629468547
Pb1      0.498964523   0.000526247   0.629468508
Pb1      0.000533525   0.498957964   0.629468020
Pb1      0.500008940   0.500004322   0.613031711
N1       0.166679361   0.166669365   0.677715553
H1       0.166678145   0.166671660   0.717652695
End final coordinates

     Writing output data file calc.save

     General routines

     Parallel routines

   This run was terminated on:  20:10:59  21Apr2018

   JOB DONE.
Job  /afs/slac/g/suncat/bin/suncat-tsmpirun -x LD_LIBRARY_PATH -wdir /scratch/qe299621_bX33B pw.x -npool 4 -in pw.inp

TID   HOST_NAME   COMMAND_LINE            STATUS            TERMINATION_TIME
00000 suncat0147 pw.x -npool 4 -i  Done                     04/21/2018 20:10:59
00001 suncat0147 pw.x -npool 4 -i  Done                     04/21/2018 20:10:59
00002 suncat0147 pw.x -npool 4 -i  Done                     04/21/2018 20:10:59
00003 suncat0147 pw.x -npool 4 -i  Done                     04/21/2018 20:10:59
00004 suncat0147 pw.x -npool 4 -i  Done                     04/21/2018 20:10:59
00005 suncat0147 pw.x -npool 4 -i  Done                     04/21/2018 20:10:59
00006 suncat0147 pw.x -npool 4 -i  Done                     04/21/2018 20:10:59
00007 suncat0147 pw.x -npool 4 -i  Done                     04/21/2018 20:10:59
00008 suncat0143 pw.x -npool 4 -i  Done                     04/21/2018 20:10:59
00009 suncat0143 pw.x -npool 4 -i  Done                     04/21/2018 20:10:59
00010 suncat0143 pw.x -npool 4 -i  Done                     04/21/2018 20:10:59
00011 suncat0143 pw.x -npool 4 -i  Done                     04/21/2018 20:10:59
00012 suncat0143 pw.x -npool 4 -i  Done                     04/21/2018 20:10:59
00013 suncat0143 pw.x -npool 4 -i  Done                     04/21/2018 20:10:59
00014 suncat0143 pw.x -npool 4 -i  Done                     04/21/2018 20:10:59
00015 suncat0143 pw.x -npool 4 -i  Done                     04/21/2018 20:10:59
00016 suncat0249 pw.x -npool 4 -i  Done                     04/21/2018 20:10:59
00017 suncat0249 pw.x -npool 4 -i  Done                     04/21/2018 20:10:59
00018 suncat0249 pw.x -npool 4 -i  Done                     04/21/2018 20:10:59
00019 suncat0249 pw.x -npool 4 -i  Done                     04/21/2018 20:10:59
00020 suncat0249 pw.x -npool 4 -i  Done                     04/21/2018 20:10:59
00021 suncat0249 pw.x -npool 4 -i  Done                     04/21/2018 20:10:59
00022 suncat0249 pw.x -npool 4 -i  Done                     04/21/2018 20:10:59
00023 suncat0249 pw.x -npool 4 -i  Done                     04/21/2018 20:10:59
00024 suncat0238 pw.x -npool 4 -i  Done                     04/21/2018 20:10:59
00025 suncat0238 pw.x -npool 4 -i  Done                     04/21/2018 20:10:59
00026 suncat0238 pw.x -npool 4 -i  Done                     04/21/2018 20:10:59
00027 suncat0238 pw.x -npool 4 -i  Done                     04/21/2018 20:10:59
00028 suncat0238 pw.x -npool 4 -i  Done                     04/21/2018 20:10:59
00029 suncat0238 pw.x -npool 4 -i  Done                     04/21/2018 20:10:59
00030 suncat0238 pw.x -npool 4 -i  Done                     04/21/2018 20:10:59
00031 suncat0238 pw.x -npool 4 -i  Done                     04/21/2018 20:10:59