     Program PWSCF v.5.1rc2 (svn rev. 11289) starts on  2May2018 at 17:32: 2

     Current dimensions of program PWSCF are:
     Max number of different atomic species (ntypx) = 10
     Max number of k-points (npk) =  40000
     Max angular momentum in pseudopotentials (lmaxx) =  3
     Presently stress not available with electric field

     IMPORTANT: XC functional enforced from input :
     Exchange-correlation      = BEEF-VDW ( 1  4 27 13 2)
     Any further DFT definition will be discarded
     Please, verify this is what you really want

     Subspace diagonalization in iterative solution of the eigenvalue problem:
     a serial algorithm will be used

     bravais-lattice index     =            0
     lattice parameter (alat)  =       1.8897  a.u.
     unit-cell volume          =    4158.3597 (a.u.)^3
     number of atoms/cell      =           13
     number of atomic types    =            2
     number of electrons       =       157.00
     number of Kohn-Sham states=           88
     kinetic-energy cutoff     =      36.7493  Ry
     charge density cutoff     =     367.4932  Ry
     convergence threshold     =      1.0E-05
     mixing beta               =       0.3000
     number of iterations used =           10  plain     mixing
     Exchange-correlation      = BEEF-VDW ( 1  4 27 13 2)
     nstep                     =           50

     celldm(1)=   1.889726  celldm(2)=   0.000000  celldm(3)=   0.000000
     celldm(4)=   0.000000  celldm(5)=   0.000000  celldm(6)=   0.000000

     crystal axes: (cart. coord. in units of alat)
               a(1) = (   5.399178   0.000000   0.000000 )
               a(2) = (   2.699589   4.675825   0.000000 )
               a(3) = (   0.000000   0.000000  24.408411 )

     reciprocal axes: (cart. coord. in units 2 pi/alat)
               b(1) = (  0.185213 -0.106933  0.000000 )
               b(2) = (  0.000000  0.213866  0.000000 )
               b(3) = (  0.000000  0.000000  0.040969 )

     PseudoPot. # 1 for V  read from file:
     /u/if/mamunm/psp/gbrv1.5pbe/V.UPF
     MD5 check sum: 22b79981416ebb76fdaf5b1b8640f6fb
     Pseudo is Ultrasoft + core correction, Zval = 13.0
     Generated by new atomic code, or converted to UPF format
     Using radial grid of  853 points,  6 beta functions with:
                l(1) =   0
                l(2) =   0
                l(3) =   1
                l(4) =   1
                l(5) =   2
                l(6) =   2
     Q(r) pseudized with  8 coefficients,  rinner =    1.100   1.100   1.100
                                                       1.100   1.100

     PseudoPot. # 2 for H  read from file:
     /u/if/mamunm/psp/gbrv1.5pbe/H.UPF
     MD5 check sum: 761ae9a214b05c3daf00ab9f6b793d6f
     Pseudo is Ultrasoft, Zval =  1.0
     Generated by new atomic code, or converted to UPF format
     Using radial grid of  615 points,  2 beta functions with:
                l(1) =   0
                l(2) =   0
     Q(r) pseudized with  8 coefficients,  rinner =    0.700

     vdW kernel table read from file vdW_kernel_table
     MD5 check sum: 095c7af220d748ca6e76c0b4c6cfb241

     atomic species   valence    mass     pseudopotential
        V1            13.00    50.94150     V ( 1.00)
        H1             1.00     1.00800     H ( 1.00)

     No symmetry found

   Cartesian axes

     site n.     atom                  positions (alat units)
         1           V1  tau(   1) = (   1.3497945   0.7793042  10.0000000  )
         2           V1  tau(   2) = (   4.0493836   0.7793042  10.0000000  )
         3           V1  tau(   3) = (   2.6995891   3.1172170  10.0000000  )
         4           V1  tau(   4) = (   5.3991782   3.1172170  10.0000000  )
         5           V1  tau(   5) = (   5.3991782   1.5586085  12.2042053  )
         6           V1  tau(   6) = (   2.6995891   1.5586085  12.2042053  )
         7           V1  tau(   7) = (   6.7489727   3.8965212  12.2042053  )
         8           V1  tau(   8) = (   4.0493836   3.8965212  12.2042053  )
         9           V1  tau(   9) = (   0.0000000   0.0000000  14.4084105  )
        10           V1  tau(  10) = (   2.6995891   0.0000000  14.4084105  )
        11           V1  tau(  11) = (   1.3497945   2.3379127  14.4084105  )
        12           V1  tau(  12) = (   4.0493836   2.3379127  14.4084105  )
        13           H1  tau(  13) = (   1.3497945   0.7793042  15.6044105  )

     number of k points=    20  Fermi-Dirac smearing, width (Ry)=  0.0110
                       cart. coord. in units 2pi/alat
        k(    1) = (   0.0000000   0.0000000   0.0000000), wk =   0.0555556
        k(    2) = (   0.0000000   0.0356443   0.0000000), wk =   0.1111111
        k(    3) = (   0.0000000   0.0712887   0.0000000), wk =   0.1111111
        k(    4) = (   0.0000000  -0.1069330   0.0000000), wk =   0.0555556
        k(    5) = (   0.0308689  -0.0178222   0.0000000), wk =   0.1111111
        k(    6) = (   0.0308689   0.0178222   0.0000000), wk =   0.1111111
        k(    7) = (   0.0308689   0.0534665   0.0000000), wk =   0.1111111
        k(    8) = (   0.0308689  -0.1247552   0.0000000), wk =   0.1111111
        k(    9) = (   0.0308689  -0.0891108   0.0000000), wk =   0.1111111
        k(   10) = (   0.0308689  -0.0534665   0.0000000), wk =   0.1111111
        k(   11) = (   0.0617378  -0.0356443   0.0000000), wk =   0.1111111
        k(   12) = (   0.0617378   0.0000000   0.0000000), wk =   0.1111111
        k(   13) = (   0.0617378   0.0356443   0.0000000), wk =   0.1111111
        k(   14) = (   0.0617378  -0.1425773   0.0000000), wk =   0.1111111
        k(   15) = (   0.0617378  -0.1069330   0.0000000), wk =   0.1111111
        k(   16) = (   0.0617378  -0.0712887   0.0000000), wk =   0.1111111
        k(   17) = (  -0.0926067   0.0534665   0.0000000), wk =   0.0555556
        k(   18) = (  -0.0926067   0.0891108   0.0000000), wk =   0.1111111
        k(   19) = (  -0.0926067   0.1247552   0.0000000), wk =   0.1111111
        k(   20) = (  -0.0926067  -0.0534665   0.0000000), wk =   0.0555556

     Largest allocated arrays     est. size (Mb)     dimensions
     Largest temporary arrays     est. size (Mb)     dimensions

     Check: negative/imaginary core charge=   -0.000001    0.000000

     Initial potential from superposition of free atoms
     Check: negative starting charge=   -0.011696

     starting charge  156.98526, renormalised to  157.00000

     negative rho (up, down):  1.170E-02 0.000E+00

     *
     * You are using vdW-DF for exchange-correlation in this calculation.
     * Please cite the following three references that made this development
     * possible:
     *
     *   M. Dion, H. Rydberg, E. Schroder, D. C. Langreth, and
     *   B. I. Lundqvist, Phys. Rev. Lett. 92, 246401 (2004).
     *
     *   T. Thonhauser, V. R. Cooper, S. Li, A. Puzder, P. Hyldgaard, and
     *   D. C. Langreth, Phys. Rev. B 76, 125112 (2007).
     *
     *   G. Roman-Perez and J. M. Soler, Phys. Rev. Lett. 103, 096102 (2009).
     *
     *
     * If you are using vdW-DF2, please also cite:
     *
     *   K. Lee, E. D. Murray, L. Kong, B. I. Lundqvist, and
     *   D. C. Langreth, Phys. Rev. B 82, 081101(R) (2010).
     *
     *
     * If you are calculating the stress with vdW-DF, please also cite:
     *
     *   R. Sabatini, E. Kucukbenli, B. Kolb, T. Thonhauser, and
     *   S. de Gironcoli, J. Phys.: Condens. Matter 24, 424209 (2012).
     *

     Carrying out vdW-DF run using the following parameters:

     Nqs =      20    Nr_points =    1024   r_max =   100.000
     q_mesh =
               0.00001000     0.04494208     0.09755937     0.15916263
               0.23128650     0.31572767     0.41458969     0.53033537
               0.66584808     0.82450364     1.01025438     1.22772762
               1.48234092     1.78043706     2.12944203     2.53805004
               3.01644009     3.57652955     4.23227104     5.00000000

     Gradients computed in reciprocal space

     Adding external electric field

     Computed dipole along edir(3) :
        Dipole               -0.0005 Ry au,         -0.0014 Debye
        Dipole field         -0.0000 Ry au

        Potential amp.        0.0001 Ry
        Total length         44.9721 bohr

     Starting wfc are  121 randomized atomic wfcs

     Self-consistent Calculation

     iteration #  1     ecut=    36.75 Ry     beta=0.30
     Davidson diagonalization with overlap
     ethr =  1.00E-02,  avg # of iterations =  2.3

[...]

     total energy              =   -1744.86433682 Ry
     Harris-Foulkes estimate   =   -1750.79215717 Ry
     estimated scf accuracy    <      12.18642342 Ry

[...]

     End of self-consistent calculation

          k = 0.0000 0.0000 0.0000 ( 15569 PWs)   bands (ev):

   -63.3407 -63.2625 -63.2171 -63.2092 -63.2091 -63.1891 -63.1697 -63.1693
   -63.1582 -63.1357 -63.1348 -63.1339 -37.4355 -37.4245 -37.4243 -37.3877
   -37.3605 -37.3446 -37.3444 -37.2904 -37.2768 -37.2765 -37.1307 -37.0508
   -37.0504 -37.0401 -37.0114 -37.0110 -37.0084 -36.9321 -36.9320 -36.9303
   -36.8807 -36.8806 -36.8655 -36.8340 -36.8338 -36.8267 -36.8122 -36.7877
   -36.7874 -36.7791 -36.7691 -36.7691 -36.6882 -36.6882 -36.6632 -36.6632
    -5.3261  -4.2770  -2.9466  -2.2126  -2.0845  -2.0804  -2.0803  -1.8321
    -1.8320  -1.6697  -1.3316  -1.3315  -1.3254  -1.3192  -1.3191  -0.9771
    -0.4583  -0.4581  -0.0986   0.4428   0.5725   0.5725   0.6076   0.8082
     1.0292   1.1129   1.1129   1.1776   1.1779   1.2820   1.2820   1.2821
     1.3537   1.3537   1.3591   1.4168   1.4168   1.6557   1.8549   1.8551

[...]

          k =-0.0926 0.0535 0.0000 ( 15660 PWs)   bands (ev):

[...]

     the Fermi energy is     0.9705 ev

!    total energy              =   -1750.08535684 Ry
     Harris-Foulkes estimate   =   -1750.08536247 Ry
     estimated scf accuracy    <       0.00000617 Ry

     The total energy is the sum of the following terms:

     one-electron contribution =  -14948.57694234 Ry
     hartree contribution      =    7461.30066094 Ry
     xc contribution           =    -244.93367495 Ry
     ewald contribution        =    5982.27065197 Ry
     electric field correction =       0.00000018 Ry
     smearing contrib. (-TS)   =      -0.14605265 Ry

     convergence has been achieved in  28 iterations

 BEEF-vdW xc energy contributions
           1 :   -211.077253313567
           2 :    189.433236785008
           3 :   -153.681461543908
           4 :    115.096997628556
           5 :   -83.5251362966469
           6 :    63.6221694234720
           7 :   -54.2020870653002
           8 :    50.4543120079548
           9 :   -47.3459470542333
          10 :    42.2004789098470
          11 :   -35.3103620409882
          12 :    28.7371936176910
          13 :   -24.4167891945958
          14 :    22.8162339832315
          15 :   -22.8261672209938
          16 :    22.7047442083715
          17 :   -21.2953728743556
          18 :    18.6848951082812
          19 :   -15.9456457061967
          20 :    14.2433796209712
          21 :   -13.9903505799277
          22 :    14.6164334176987
          23 :   -15.0517618227012
          24 :    14.5089962960694
          25 :   -12.9936028384761
          26 :    11.2175546310703
          27 :   -10.0384571240768
          28 :    9.85476915020260
          29 :   -10.3728381550783
          30 :    10.8670964850600
          31 :   -21.8465939288165
          32 :   -15.7554938070753

     Forces acting on atoms (Ry/au):

     negative rho (up, down):  1.543E-02 0.000E+00
     atom    1 type  1   force =     0.00000153    0.00000456   -0.00160315
     atom    2 type  1   force =     0.00001865    0.00052611    0.00011339
     atom    3 type  1   force =     0.00042979   -0.00026137    0.00012253
     atom    4 type  1   force =    -0.00042939   -0.00027451    0.00009377
     atom    5 type  1   force =     0.00046708   -0.00031469    0.00127815
     atom    6 type  1   force =    -0.00048421   -0.00031039    0.00125176
     atom    7 type  1   force =    -0.00001957    0.00004487   -0.00969426
     atom    8 type  1   force =     0.00001024    0.00059274    0.00127782
     atom    9 type  1   force =    -0.00024541   -0.00013603    0.01050515
     atom   10 type  1   force =     0.00023527   -0.00013118    0.01050838
     atom   11 type  1   force =     0.00001057    0.00028468    0.01048456
     atom   12 type  1   force =     0.00000525   -0.00001441   -0.00670057
     atom   13 type  2   force =     0.00000021   -0.00001040   -0.01763752

     Total force =     0.026209     Total SCF correction =     0.006277
     SCF correction compared to forces is large: reduce conv_thr to get better values

     entering subroutine stress ...

     negative rho (up, down):  1.543E-02 0.000E+00
          total   stress  (Ry/bohr**3)                   (kbar)     P=  -20.23
  -0.00019889  -0.00000002  -0.00000003        -29.26     -0.00     -0.00
  -0.00000002  -0.00019892   0.00000001         -0.00    -29.26      0.00
  -0.00000003   0.00000001  -0.00001476         -0.00      0.00     -2.17

     BFGS Geometry Optimization

     number of scf cycles    =   1
     number of bfgs steps    =   0

     energy   new            =   -1750.0853568382 Ry

     new trust radius        =       0.0176375220 bohr
     new conv_thr            =       0.0000099958 Ry

ATOMIC_POSITIONS (crystal)
V1       0.166666667   0.166666667   0.409694847    0   0   0
V1       0.666666667   0.166666667   0.409694847    0   0   0
V1       0.166666667   0.666666667   0.409694847    0   0   0
V1       0.666666667   0.666666667   0.409694847    0   0   0
V1       0.833333333   0.333333333   0.500000000    0   0   0
V1       0.333333333   0.333333333   0.500000000    0   0   0
V1       0.833333333   0.833333333   0.500000000    0   0   0
V1       0.333333333   0.833333333   0.500000000    0   0   0
V1      -0.000016355  -0.000015395   0.590532906
V1       0.500030482  -0.000014846   0.590532976
V1      -0.000015073   0.500032218   0.590532460
V1       0.500001330   0.499998369   0.590159884
H1       0.166667276   0.166665490   0.638922274

     Writing output data file calc.save
     Check: negative starting charge=   -0.011696
     NEW-OLD atomic charge density approx. for the potential

     Check: negative/imaginary core charge=   -0.000001    0.000000
     Check: negative starting charge=   -0.011676

[...]

     Total force =     0.022955     Total SCF correction =     0.000573

[...]

     energy   old            =   -1750.0853568382 Ry
     energy   new            =   -1750.0860032747 Ry

     CASE: energy  _new < energy  _old

     WARNING: bfgs curvature condition failed, Theta= 0.916
     new trust radius        =       0.0194012742 bohr
     new conv_thr            =       0.0000001000 Ry

[...]

     Total force =     0.005108     Total SCF correction =     0.000220

[...]

     number of scf cycles    =  14
     number of bfgs steps    =  13

     energy   old            =   -1750.0906771838 Ry
     energy   new            =   -1750.0908202286 Ry

     CASE: energy  _new < energy  _old

     new trust radius        =       0.0200239861 bohr
     new conv_thr            =       0.0000001000 Ry

ATOMIC_POSITIONS (crystal)
V1       0.166666667   0.166666667   0.409694847    0   0   0
V1       0.666666667   0.166666667   0.409694847    0   0   0
V1       0.166666667   0.666666667   0.409694847    0   0   0
V1       0.666666667   0.666666667   0.409694847    0   0   0
V1       0.833333333   0.333333333   0.500000000    0   0   0
V1       0.333333333   0.333333333   0.500000000    0   0   0
V1       0.833333333   0.833333333   0.500000000    0   0   0
V1       0.333333333   0.833333333   0.500000000    0   0   0
V1      -0.005246176  -0.005254690   0.592429741
V1       0.510499057  -0.005255936   0.592430031
V1      -0.005243233   0.510492703   0.592430597
V1       0.500011688   0.499990804   0.579651033
H1       0.166665598   0.166666223   0.635067001

     Writing output data file calc.save
     Check: negative starting charge=   -0.009940
     NEW-OLD atomic charge density approx. for the potential

     Check: negative/imaginary core charge=   -0.000001    0.000000
     Check: negative starting charge=   -0.010280

[...]

     Self-consistent Calculation

[...]

     total energy              =   -1750.09087384 Ry
     Harris-Foulkes estimate   =   -1750.09087387 Ry
     estimated scf accuracy    <       0.00000028 Ry

     iteration # 17     ecut=    36.75 Ry     beta=0.30
     Davidson diagonalization with overlap
     ethr =  1.81E-10,  avg # of iterations =  5.3

[...]

     negative rho (up, down):  1.458E-02 0.000E+00

     Adding external electric field

     Computed dipole along edir(3) :
        Dipole                0.0253 Ry au,          0.0644 Debye
        Dipole field          0.0001 Ry au

        Potential amp.       -0.0069 Ry
        Total length         44.9721 bohr

     End of self-consistent calculation

[...]

          k = 0.0617-0.0713 0.0000 ( 15642 PWs)   bands (ev):

[...]

          k =-0.0926-0.0535 0.0000 ( 15660 PWs)   bands (ev):

   -63.2472 -63.2260 -63.1984 -63.1826 -63.1708 -63.1523 -63.1381 -63.1373
   -63.1335 -63.0952 -63.0949 -62.9910 -37.3057 -37.2761 -37.2704 -37.2428
   -37.2294 -37.2284 -37.1575 -37.1499 -37.1383 -37.1167 -37.1149 -37.0987
   -37.0367 -36.9894 -36.9848 -36.9806 -36.9582 -36.9348 -36.9234 -36.9211
   -36.9109 -36.9030 -36.9021 -36.8882 -36.8653 -36.8408 -36.8194 -36.8013
   -36.7951 -36.7941 -36.7267 -36.6994 -36.6952 -36.6852 -36.6311 -36.6113
    -4.3177  -3.3584  -3.1485  -2.0910  -1.7442  -1.4109  -1.3791  -1.3201
    -1.2711  -1.1448  -1.0074  -0.6840  -0.6133  -0.5064  -0.4622  -0.3423
    -0.3164  -0.1105  -0.0065   0.0696   0.1085   0.1404   0.1568   0.3102
     0.4312   0.5277   0.5717   0.6185   0.6233   0.7540   0.7912   0.9000
     0.9309   1.1523   1.1594   1.2219   1.3228   1.3567   1.5774   1.7139

     the Fermi energy is     1.0042 ev

!    total energy              =   -1750.09087383 Ry
     Harris-Foulkes estimate   =   -1750.09087379 Ry
     estimated scf accuracy    <       0.00000003 Ry

     The total energy is the sum of the following terms:

     one-electron contribution =  -15003.26295786 Ry
     hartree contribution      =    7488.93357881 Ry
     xc contribution           =    -245.02241460 Ry
     ewald contribution        =    6009.40004057 Ry
     electric field correction =       0.00000194 Ry
     smearing contrib. (-TS)   =      -0.13912269 Ry

     convergence has been achieved in  17 iterations

 BEEF-vdW xc energy contributions
           1 :   -211.164961193334
           2 :    189.533196080955
           3 :   -153.787469218625
           4 :    115.179528982483
           5 :   -83.5440980361979
           6 :    63.5514999659884
           7 :   -54.0525838703882
           8 :    50.2759654922388
           9 :   -47.2028324906208
          10 :    42.1311651420473
          11 :   -35.3021665123448
          12 :    28.7344541215299
          13 :   -24.3591722744190
          14 :    22.6805009868851
          15 :   -22.6408655384859
          16 :    22.5294679450199
          17 :   -21.1801882493365
          18 :    18.6370097333275
          19 :   -15.9247895225192
          20 :    14.1883902841581
          21 :   -13.8596259471291
          22 :    14.4167856928488
          23 :   -14.8365287096054
          24 :    14.3453950155399
          25 :   -12.9205113654947
          26 :    11.2213615194933
          27 :   -10.0638603083286
          28 :    9.84278655029416
          29 :   -10.2999677965940
          30 :    10.7582271735425
          31 :   -21.8522973273512
          32 :   -15.7614645188269

     Forces acting on atoms (Ry/au):

     negative rho (up, down):  1.458E-02 0.000E+00
     atom    1 type  1   force =    -0.00000195    0.00000055    0.00150186
     atom    2 type  1   force =    -0.00000028    0.00007490    0.00049975
     atom    3 type  1   force =     0.00006347   -0.00003671    0.00050061
     atom    4 type  1   force =    -0.00006556   -0.00003773    0.00050109
     atom    5 type  1   force =     0.01681929   -0.00970947   -0.00452622
     atom    6 type  1   force =    -0.01681865   -0.00970935   -0.00451604
     atom    7 type  1   force =    -0.00000427    0.00000142    0.00556796
     atom    8 type  1   force =    -0.00000021    0.01941917   -0.00451988
     atom    9 type  1   force =     0.00010806    0.00006073    0.00133927
     atom   10 type  1   force =    -0.00010077    0.00005985    0.00133938
     atom   11 type  1   force =    -0.00000175   -0.00011837    0.00133206
     atom   12 type  1   force =     0.00000056   -0.00000144    0.00018431
     atom   13 type  2   force =     0.00000205   -0.00000354    0.00079585

     Total force =     0.002464     Total SCF correction =     0.000251
     SCF correction compared to forces is large: reduce conv_thr to get better values

     entering subroutine stress ...

     negative rho (up, down):  1.458E-02 0.000E+00
          total   stress  (Ry/bohr**3)                   (kbar)     P=  -16.10
  -0.00016221   0.00000000   0.00000001        -23.86      0.00      0.00
   0.00000000  -0.00016222  -0.00000001          0.00    -23.86     -0.00
   0.00000001  -0.00000001  -0.00000381          0.00     -0.00     -0.56

     bfgs converged in  15 scf cycles and  14 bfgs steps
     (criteria: energy <  1.0E+00, force <  1.9E-03)

     End of BFGS Geometry Optimization

     Final energy   =   -1750.0908738302 Ry
Begin final coordinates

ATOMIC_POSITIONS (crystal)
V1       0.166666667   0.166666667   0.409694847    0   0   0
V1       0.666666667   0.166666667   0.409694847    0   0   0
V1       0.166666667   0.666666667   0.409694847    0   0   0
V1       0.666666667   0.666666667   0.409694847    0   0   0
V1       0.833333333   0.333333333   0.500000000    0   0   0
V1       0.333333333   0.333333333   0.500000000    0   0   0
V1       0.833333333   0.833333333   0.500000000    0   0   0
V1       0.333333333   0.833333333   0.500000000    0   0   0
V1      -0.005246176  -0.005254690   0.592429741
V1       0.510499057  -0.005255936   0.592430031
V1      -0.005243233   0.510492703   0.592430597
V1       0.500011688   0.499990804   0.579651033
H1       0.166665598   0.166666223   0.635067001
End final coordinates

     Writing output data file calc.save

     General routines

     Parallel routines

   This run was terminated on:  19:16: 7   2May2018

   JOB DONE.
Job  /afs/slac/g/suncat/bin/suncat-tsmpirun -x LD_LIBRARY_PATH -wdir /scratch/qe814866_YD4Kx pw.x -npool 4 -in pw.inp

TID   HOST_NAME   COMMAND_LINE            STATUS            TERMINATION_TIME
00000 suncat0020 pw.x -npool 4 -i  Done                     05/02/2018 19:16:07
00001 suncat0020 pw.x -npool 4 -i  Done                     05/02/2018 19:16:07
00002 suncat0020 pw.x -npool 4 -i  Done                     05/02/2018 19:16:07
00003 suncat0020 pw.x -npool 4 -i  Done                     05/02/2018 19:16:07
00004 suncat0020 pw.x -npool 4 -i  Done                     05/02/2018 19:16:07
00005 suncat0020 pw.x -npool 4 -i  Done                     05/02/2018 19:16:07
00006 suncat0020 pw.x -npool 4 -i  Done                     05/02/2018 19:16:07
00007 suncat0020 pw.x -npool 4 -i  Done                     05/02/2018 19:16:07
00008 suncat0012 pw.x -npool 4 -i  Done                     05/02/2018 19:16:07
00009 suncat0012 pw.x -npool 4 -i  Done                     05/02/2018 19:16:07
00010 suncat0012 pw.x -npool 4 -i  Done                     05/02/2018 19:16:07
00011 suncat0012 pw.x -npool 4 -i  Done                     05/02/2018 19:16:07
00012 suncat0012 pw.x -npool 4 -i  Done                     05/02/2018 19:16:07
00013 suncat0012 pw.x -npool 4 -i  Done                     05/02/2018 19:16:07
00014 suncat0012 pw.x -npool 4 -i  Done                     05/02/2018 19:16:07
00015 suncat0012 pw.x -npool 4 -i  Done                     05/02/2018 19:16:07
00016 suncat0198 pw.x -npool 4 -i  Done                     05/02/2018 19:16:07
00017 suncat0198 pw.x -npool 4 -i  Done                     05/02/2018 19:16:07
00018 suncat0198 pw.x -npool 4 -i  Done                     05/02/2018 19:16:07
00019 suncat0198 pw.x -npool 4 -i  Done                     05/02/2018 19:16:07
00020 suncat0198 pw.x -npool 4 -i  Done                     05/02/2018 19:16:07
00021 suncat0198 pw.x -npool 4 -i  Done                     05/02/2018 19:16:07
00022 suncat0198 pw.x -npool 4 -i  Done                     05/02/2018 19:16:07
00023 suncat0198 pw.x -npool 4 -i  Done                     05/02/2018 19:16:07
00024 suncat0192 pw.x -npool 4 -i  Done                     05/02/2018 19:16:07
00025 suncat0192 pw.x -npool 4 -i  Done                     05/02/2018 19:16:07
00026 suncat0192 pw.x -npool 4 -i  Done                     05/02/2018 19:16:07
00027 suncat0192 pw.x -npool 4 -i  Done                     05/02/2018 19:16:07
00028 suncat0192 pw.x -npool 4 -i  Done                     05/02/2018 19:16:07
00029 suncat0192 pw.x -npool 4 -i  Done                     05/02/2018 19:16:07
00030 suncat0192 pw.x -npool 4 -i  Done                     05/02/2018 19:16:07
00031 suncat0192 pw.x -npool 4 -i  Done                     05/02/2018 19:16:07