     Program PWSCF v.5.1rc2 (svn rev. 11289) starts on  2May2018 at 13:33:58

     Current dimensions of program PWSCF are:
     Max number of different atomic species (ntypx) = 10
     Max number of k-points (npk) =  40000
     Max angular momentum in pseudopotentials (lmaxx) =  3
     Presently stress not available with electric field

     IMPORTANT: XC functional enforced from input :
     Exchange-correlation      = BEEF-VDW ( 1  4 27 13 2)
     Any further DFT definition will be discarded
     Please, verify this is what you really want

     Subspace diagonalization in iterative solution of the eigenvalue problem:
     a serial algorithm will be used

     bravais-lattice index     =            0
     lattice parameter (alat)  =       1.8897  a.u.
     unit-cell volume          =    3724.3394 (a.u.)^3
     number of atoms/cell      =           13
     number of atomic types    =            2
     number of electrons       =       173.00
     number of Kohn-Sham states=           96
     kinetic-energy cutoff     =      36.7493  Ry
     charge density cutoff     =     367.4932  Ry
     convergence threshold     =      1.0E-05
     mixing beta               =       0.3000
     number of iterations used =           10  plain     mixing
     Exchange-correlation      = BEEF-VDW ( 1  4 27 13 2)
     nstep                     =           50

     celldm(1)=   1.889726  celldm(2)=   0.000000  celldm(3)=   0.000000
     celldm(4)=   0.000000  celldm(5)=   0.000000  celldm(6)=   0.000000

     crystal axes: (cart. coord. in units of alat)
               a(1) = (   5.132588   0.000000   0.000000 )
               a(2) = (   2.566294   4.444952   0.000000 )
               a(3) = (   0.000000   0.000000  24.190741 )

     reciprocal axes: (cart. coord. in units 2 pi/alat)
               b(1) = (  0.194833 -0.112487  0.000000 )
               b(2) = (  0.000000  0.224974  0.000000 )
               b(3) = (  0.000000  0.000000  0.041338 )

     PseudoPot. # 1 for Cr read from file:
     /u/if/mamunm/psp/gbrv1.5pbe/Cr.UPF
     MD5 check sum: 0d52af634a40206e4dee301ad30da4bf
     Pseudo is Ultrasoft + core correction, Zval = 14.0
     Generated by new atomic code, or converted to UPF format
     Using radial grid of  857 points,  6 beta functions with:
                l(1) =   0
                l(2) =   0
                l(3) =   1
                l(4) =   1
                l(5) =   2
                l(6) =   2
     Q(r) pseudized with  8 coefficients,  rinner =    0.950   0.950   0.950
                                                       0.950   0.950

     PseudoPot. # 2 for N  read from file:
     /u/if/mamunm/psp/gbrv1.5pbe/N.UPF
     MD5 check sum: 95339753478d7afb44899504a8723017
     Pseudo is Ultrasoft + core correction, Zval =  5.0
     Generated by new atomic code, or converted to UPF format
     Using radial grid of  729 points,  4 beta functions with:
                l(1) =   0
                l(2) =   0
                l(3) =   1
                l(4) =   1
     Q(r) pseudized with  8 coefficients,  rinner =    0.900   0.900   0.900

     vdW kernel table read from file vdW_kernel_table
     MD5 check sum: 095c7af220d748ca6e76c0b4c6cfb241

     atomic species   valence    mass     pseudopotential
        Cr1           14.00    51.99610     Cr( 1.00)
        N1             5.00    14.00700     N ( 1.00)

     No symmetry found

   Cartesian axes

     site n.     atom                  positions (alat units)
         1           Cr1 tau(   1) = (   1.2831471   0.7408253  10.0000000  )
         2           Cr1 tau(   2) = (   3.8494412   0.7408253  10.0000000  )
         3           Cr1 tau(   3) = (   2.5662941   2.9633012  10.0000000  )
         4           Cr1 tau(   4) = (   5.1325882   2.9633012  10.0000000  )
         5           Cr1 tau(   5) = (   5.1325882   1.4816506  12.0953704  )
         6           Cr1 tau(   6) = (   2.5662941   1.4816506  12.0953704  )
         7           Cr1 tau(   7) = (   6.4157353   3.7041265  12.0953704  )
         8           Cr1 tau(   8) = (   3.8494412   3.7041265  12.0953704  )
         9           Cr1 tau(   9) = (   0.0000000   0.0000000  14.1907408  )
        10           Cr1 tau(  10) = (   2.5662941   0.0000000  14.1907408  )
        11           Cr1 tau(  11) = (   1.2831471   2.2224759  14.1907408  )
        12           Cr1 tau(  12) = (   3.8494412   2.2224759  14.1907408  )
        13           N1  tau(  13) = (   0.0000000   0.0000000  15.9757408  )

     number of k points=    20  Fermi-Dirac smearing, width (Ry)=  0.0110
                       cart. coord. in units 2pi/alat
        k(    1) = (   0.0000000   0.0000000   0.0000000), wk =   0.0555556
        k(    2) = (   0.0000000   0.0374957   0.0000000), wk =   0.1111111
        k(    3) = (   0.0000000   0.0749914   0.0000000), wk =   0.1111111
        k(    4) = (   0.0000000  -0.1124872   0.0000000), wk =   0.0555556
        k(    5) = (   0.0324722  -0.0187479   0.0000000), wk =   0.1111111
        k(    6) = (   0.0324722   0.0187479   0.0000000), wk =   0.1111111
        k(    7) = (   0.0324722   0.0562436   0.0000000), wk =   0.1111111
        k(    8) = (   0.0324722  -0.1312350   0.0000000), wk =   0.1111111
        k(    9) = (   0.0324722  -0.0937393   0.0000000), wk =   0.1111111
        k(   10) = (   0.0324722  -0.0562436   0.0000000), wk =   0.1111111
        k(   11) = (   0.0649445  -0.0374957   0.0000000), wk =   0.1111111
        k(   12) = (   0.0649445   0.0000000   0.0000000), wk =   0.1111111
        k(   13) = (   0.0649445   0.0374957   0.0000000), wk =   0.1111111
        k(   14) = (   0.0649445  -0.1499829   0.0000000), wk =   0.1111111
        k(   15) = (   0.0649445  -0.1124872   0.0000000), wk =   0.1111111
        k(   16) = (   0.0649445  -0.0749914   0.0000000), wk =   0.1111111
        k(   17) = (  -0.0974167   0.0562436   0.0000000), wk =   0.0555556
        k(   18) = (  -0.0974167   0.0937393   0.0000000), wk =   0.1111111
        k(   19) = (  -0.0974167   0.1312350   0.0000000), wk =   0.1111111
        k(   20) = (  -0.0974167  -0.0562436   0.0000000), wk =   0.0555556

     Largest allocated arrays     est. size (Mb)     dimensions
     Largest temporary arrays     est. size (Mb)     dimensions

     Check: negative/imaginary core charge=   -0.000004    0.000000

     Initial potential from superposition of free atoms
     Check: negative starting charge=   -0.014947

     starting charge  160.99981, renormalised to  173.00000

     negative rho (up, down):  1.606E-02 0.000E+00

     *
     * You are using vdW-DF for exchange-correlation in this calculation.
     * Please cite the following three references that made this development
     * possible:
     *
     *   M. Dion, H. Rydberg, E. Schroder, D. C. Langreth, and
     *   B. I. Lundqvist, Phys. Rev. Lett. 92, 246401 (2004).
     *
     *   T. Thonhauser, V. R. Cooper, S. Li, A. Puzder, P. Hyldgaard, and
     *   D. C. Langreth, Phys. Rev. B 76, 125112 (2007).
     *
     *   G. Roman-Perez and J. M. Soler, Phys. Rev. Lett. 103, 096102 (2009).
     *
     *
     * If you are using vdW-DF2, please also cite:
     *
     *   K. Lee, E. D. Murray, L. Kong, B. I. Lundqvist, and
     *   D. C. Langreth, Phys. Rev. B 82, 081101(R) (2010).
     *
     *
     * If you are calculating the stress with vdW-DF, please also cite:
     *
     *   R. Sabatini, E. Kucukbenli, B. Kolb, T. Thonhauser, and
     *   S. de Gironcoli, J. Phys.: Condens. Matter 24, 424209 (2012).
     *

     Carrying out vdW-DF run using the following parameters:

     Nqs =      20    Nr_points =    1024   r_max =   100.000
     q_mesh =
               0.00001000     0.04494208     0.09755937     0.15916263
               0.23128650     0.31572767     0.41458969     0.53033537
               0.66584808     0.82450364     1.01025438     1.22772762
               1.48234092     1.78043706     2.12944203     2.53805004
               3.01644009     3.57652955     4.23227104     5.00000000

     Gradients computed in reciprocal space

     Adding external electric field

     Computed dipole along edir(3) :
        Dipole               -2.7327 Ry au,         -6.9459 Debye
        Dipole field         -0.0092 Ry au

        Potential amp.        0.8219 Ry
        Total length         44.5710 bohr

     Starting wfc are  124 randomized atomic wfcs

     Self-consistent Calculation

     iteration #  1     ecut=    36.75 Ry     beta=0.30
     Davidson diagonalization with overlap
     ethr =  1.00E-02,  avg # of iterations =  7.5

[...]

     total energy              =   -1922.38075469 Ry
     Harris-Foulkes estimate   =   -2135.82467575 Ry
     estimated scf accuracy    <     445.29456052 Ry

[...]

     End of self-consistent calculation

          k = 0.0000 0.0000 0.0000 ( 14081 PWs)   bands (ev):

   -71.0290 -70.9566 -70.9041 -70.8742 -70.8731 -70.8727 -70.8477 -70.8352
   -70.8334 -70.7574 -70.7557 -70.7547 -42.6138 -42.6080 -42.6074 -42.5734
   -42.5492 -42.5489 -42.5213 -42.4235 -42.4229 -42.4131 -42.3413 -42.2725
   -42.2325 -42.2317 -42.1572 -42.1441 -42.1439 -42.1009 -42.0943 -42.0937
   -42.0457 -42.0147 -42.0135 -42.0126 -41.9985 -41.9984 -41.9761 -41.9237
   -41.9236 -41.9030 -41.8974 -41.8971 -41.8668 -41.8665 -41.7669 -41.7669
   -11.7804  -5.9553  -4.1873  -3.2172  -2.9984  -2.9982  -2.9275  -2.6770
    -2.6328  -2.6327  -2.2588  -2.2588  -2.2404  -2.1074  -2.1072  -2.0956
    -1.7149  -1.7148  -1.3240  -1.1467  -0.5941  -0.5941  -0.2337  -0.1210
     0.0566   0.0774   0.0776   0.2925   0.2925   0.4666   0.4666   0.5363
     0.5365   0.5513   0.6151   0.6405   0.6406   0.6458   0.6458   1.1527
     1.3899   1.5364   1.5364   1.5985   1.8379   1.8380   1.9488   1.9852

[...]

          k =-0.0974 0.0562 0.0000 ( 14010 PWs)   bands (ev):

[...]

     the Fermi energy is     0.7181 ev

!    total energy              =   -2135.13095189 Ry
     Harris-Foulkes estimate   =   -2135.13095914 Ry
     estimated scf accuracy    <       0.00000941 Ry

     The total energy is the sum of the following terms:

     one-electron contribution =  -19869.80109825 Ry
     hartree contribution      =    9925.47374734 Ry
     xc contribution           =    -284.41370598 Ry
     ewald contribution        =    8093.74072875 Ry
     electric field correction =       0.00035667 Ry
     smearing contrib. (-TS)   =      -0.13098041 Ry

     convergence has been achieved in  40 iterations

 BEEF-vdW xc energy contributions
           1 :   -246.144368089057
           2 :    221.487810016044
           3 :   -180.383609813154
           4 :    135.231424706086
           5 :   -97.2093123592185
           6 :    72.2500364734261
           7 :   -60.0044899635041
           8 :    55.7291332318734
           9 :   -53.6567236915465
          10 :    49.9438781438874
          11 :   -43.8830433551225
          12 :    37.1862811263757
          13 :   -32.1621383523353
          14 :    30.0130947135293
          15 :   -30.1878287277727
          16 :    30.9532285794182
          17 :   -30.6250638360515
          18 :    28.6005285804075
          19 :   -25.5782275425321
          20 :    22.9243259192509
          21 :   -21.6887896670146
          22 :    21.9400966090190
          23 :   -22.8109959542761
          24 :    23.1488420335257
          25 :   -22.2871851565824
          26 :    20.4260515144882
          27 :   -18.4201058527087
          28 :    17.1677156181422
          29 :   -17.0247714308931
          30 :    17.6151726025435
          31 :   -24.4239837261050
          32 :   -17.5350757969339

     Forces acting on atoms (Ry/au):

     negative rho (up, down):  1.474E-02 0.000E+00
     atom    1 type  1   force =     0.00059184    0.00033410   -0.00004167
     atom    2 type  1   force =    -0.00059342    0.00035967   -0.00004649
     atom    3 type  1   force =     0.00001934   -0.00069129   -0.00003111
     atom    4 type  1   force =    -0.00001761   -0.00000126    0.00139435
     atom    5 type  1   force =     0.00001160    0.00560436   -0.00286346
     atom    6 type  1   force =    -0.00001183    0.00000183    0.01559039
     atom    7 type  1   force =    -0.00485720   -0.00280859   -0.00281624
     atom    8 type  1   force =     0.00484970   -0.00279502   -0.00284359
     atom    9 type  1   force =     0.00001206    0.00002088    0.17739434
     atom   10 type  1   force =    -0.00000870    0.00408070   -0.00610199
     atom   11 type  1   force =     0.00352467   -0.00205596   -0.00616679
     atom   12 type  1   force =    -0.00352145   -0.00204833   -0.00616027
     atom   13 type  2   force =     0.00000102   -0.00000110   -0.16730748

     Total force =     0.244180     Total SCF correction =     0.003444

     entering subroutine stress ...

     negative rho (up, down):  1.474E-02 0.000E+00
          total   stress  (Ry/bohr**3)                   (kbar)     P=  -29.01
  -0.00021465  -0.00000007  -0.00000001        -31.58     -0.01     -0.00
  -0.00000007  -0.00021466  -0.00000000         -0.01    -31.58     -0.00
  -0.00000001  -0.00000000  -0.00016235         -0.00     -0.00    -23.88

     BFGS Geometry Optimization

     number of scf cycles    =   1
     number of bfgs steps    =   0

     energy   new            =   -2135.1309518893 Ry

     new trust radius        =       0.1773943466 bohr
     new conv_thr            =       0.0000099958 Ry

ATOMIC_POSITIONS (crystal)
Cr1      0.166666667   0.166666667   0.413381306    0   0   0
Cr1      0.666666667   0.166666667   0.413381306    0   0   0
Cr1      0.166666667   0.666666667   0.413381306    0   0   0
Cr1      0.666666667   0.666666667   0.413381306    0   0   0
Cr1      0.833333333   0.333333333   0.500000000    0   0   0
Cr1      0.333333333   0.333333333   0.500000000    0   0   0
Cr1      0.833333333   0.833333333   0.500000000    0   0   0
Cr1      0.333333333   0.833333333   0.500000000    0   0   0
Cr1      0.000000000   0.000002485   0.590499230
Cr1      0.499756197   0.000485813   0.586485212
Cr1      0.000485780   0.499755236   0.586483795
Cr1      0.499758862   0.499756144   0.586483937
N1       0.000000171  -0.000000131   0.656747373

     Writing output data file calc.save
     Check: negative starting charge=   -0.014947
     NEW-OLD atomic charge density approx. for the potential

     Check: negative/imaginary core charge=   -0.000004    0.000000
     Check: negative starting charge=   -0.014936

[...]

     iteration #  1     ecut=    36.75 Ry     beta=0.30
     Davidson diagonalization with overlap
     c_bands:  1 eigenvalues not converged
     ethr =  1.00E-06,  avg # of iterations = 16.4

[...]

     Total force =     0.029027     Total SCF correction =     0.010424
     SCF correction compared to forces is large: reduce conv_thr to get better values

[...]

     energy   old            =   -2135.1309518893 Ry
     energy   new            =   -2135.1667933664 Ry

     CASE: energy  _new < energy  _old

[...]

     iteration #  6     ecut=    36.75 Ry     beta=0.30
     Davidson diagonalization with overlap
     c_bands:  1 eigenvalues not converged
     ethr =  1.41E-06,  avg # of iterations =  8.7

[...]

     Total force =     0.003667     Total SCF correction =     0.000296

[...]

     number of scf cycles    =  15
     number of bfgs steps    =  14

     energy   old            =   -2135.1751903017 Ry
     energy   new            =   -2135.1752374776 Ry

     CASE: energy  _new < energy  _old

     new trust radius        =       0.0199676982 bohr
     new conv_thr            =       0.0000001000 Ry

ATOMIC_POSITIONS (crystal)
Cr1      0.166666667   0.166666667   0.413381306    0   0   0
Cr1      0.666666667   0.166666667   0.413381306    0   0   0
Cr1      0.166666667   0.666666667   0.413381306    0   0   0
Cr1      0.666666667   0.666666667   0.413381306    0   0   0
Cr1      0.833333333   0.333333333   0.500000000    0   0   0
Cr1      0.333333333   0.333333333   0.500000000    0   0   0
Cr1      0.833333333   0.833333333   0.500000000    0   0   0
Cr1      0.333333333   0.833333333   0.500000000    0   0   0
Cr1     -0.000003161   0.000024393   0.596629073
Cr1      0.501922177  -0.003865450   0.579834878
Cr1     -0.003824515   0.501972188   0.579765762
Cr1      0.501992750   0.501961517   0.579836050
N1      -0.000039544  -0.000007533   0.661669242

     Writing output data file calc.save
     Check: negative starting charge=   -0.014504
     NEW-OLD atomic charge density approx. for the potential

     Check: negative/imaginary core charge=   -0.000004    0.000000
     Check: negative starting charge=   -0.014587

[...]

     Self-consistent Calculation

[...]

     total energy              =   -2135.17527759 Ry
     Harris-Foulkes estimate   =   -2135.17527769 Ry
     estimated scf accuracy    <       0.00000024 Ry

     iteration # 24     ecut=    36.75 Ry     beta=0.30
     Davidson diagonalization with overlap
     ethr =  1.38E-10,  avg # of iterations =  4.2

[...]

     negative rho (up, down):  1.460E-02 0.000E+00

     Adding external electric field

     Computed dipole along edir(3) :
        Dipole               -0.3649 Ry au,         -0.9274 Debye
        Dipole field         -0.0012 Ry au

        Potential amp.        0.1097 Ry
        Total length         44.5710 bohr

     End of self-consistent calculation

[...]

          k = 0.0649-0.0750 0.0000 ( 13990 PWs)   bands (ev):

[...]

          k =-0.0974-0.0562 0.0000 ( 14010 PWs)   bands (ev):

   -71.0208 -71.0082 -70.9383 -70.9373 -70.9108 -70.9056 -70.8587 -70.8565
   -70.8520 -70.8397 -70.8153 -70.7596 -42.5967 -42.5944 -42.5749 -42.5488
   -42.5157 -42.4774 -42.4427 -42.4292 -42.4009 -42.3824 -42.3612 -42.3245
   -42.3130 -42.2277 -42.2073 -42.1945 -42.1922 -42.1780 -42.1663 -42.1547
   -42.1467 -42.1375 -42.1308 -42.0981 -42.0924 -42.0793 -42.0736 -42.0388
   -41.9899 -41.9807 -41.9607 -41.9420 -41.9356 -41.9333 -41.8869 -41.8528
   -11.7253  -4.2447  -4.2174  -2.9093  -2.7843  -2.4574  -2.4237  -2.3098
    -2.2350  -2.1753  -2.1073  -2.0468  -1.8433  -1.8217  -1.5446  -1.5148
    -1.3786  -1.3081  -1.2597  -1.0975  -0.9584  -0.8925  -0.7488  -0.7484
    -0.6749  -0.6508  -0.3040  -0.2059  -0.1853  -0.1668  -0.1029  -0.0295
    -0.0120   0.0812   0.1083   0.2229   0.2919   0.3700   0.3823   0.5503
     0.6018   0.6946   1.1039   1.2070   1.2111   1.3516   1.4022   1.5386

     the Fermi energy is     0.6290 ev

!    total energy              =   -2135.17527753 Ry
     Harris-Foulkes estimate   =   -2135.17527840 Ry
     estimated scf accuracy    <       0.00000008 Ry

     The total energy is the sum of the following terms:

     one-electron contribution =  -20016.98204766 Ry
     hartree contribution      =    9998.85869447 Ry
     xc contribution           =    -284.75136320 Ry
     ewald contribution        =    8167.82480599 Ry
     electric field correction =       0.00044918 Ry
     smearing contrib. (-TS)   =      -0.12581631 Ry

     convergence has been achieved in  24 iterations

 BEEF-vdW xc energy contributions
           1 :   -246.481875744310
           2 :    221.885719329828
           3 :   -180.848056424389
           4 :    135.685125214535
           5 :   -97.5272223159606
           6 :    72.3438368283523
           7 :   -59.8870246728857
           8 :    55.5102595106279
           9 :   -53.4753627481904
          10 :    49.8850817479145
          11 :   -43.9350291294546
          12 :    37.2573003007679
          13 :   -32.1369552670325
          14 :    29.8164480914876
          15 :   -29.8243653914851
          16 :    30.5033592431176
          17 :   -30.1998473681521
          18 :    28.2804302007698
          19 :   -25.3688951425557
          20 :    22.7567906379970
          21 :   -21.4675089869318
          22 :    21.6088480895082
          23 :   -22.3928721868512
          24 :    22.7331436922357
          25 :   -21.9703044262199
          26 :    20.2463789364527
          27 :   -18.3312736172781
          28 :    17.0661687827174
          29 :   -16.8147038939977
          30 :    17.2725064568991
          31 :   -24.4433850243260
          32 :   -17.5622417898570

     Forces acting on atoms (Ry/au):

     negative rho (up, down):  1.460E-02 0.000E+00
     atom    1 type  1   force =     0.00086606    0.00049556    0.00600434
     atom    2 type  1   force =    -0.00087155    0.00050098    0.00603322
     atom    3 type  1   force =    -0.00000099   -0.00100150    0.00600900
     atom    4 type  1   force =    -0.00000904    0.00000014   -0.00077210
     atom    5 type  1   force =    -0.00007221   -0.01612255   -0.00040931
     atom    6 type  1   force =     0.00005852   -0.00005757   -0.01586388
     atom    7 type  1   force =     0.01392999    0.00811575   -0.00040595
     atom    8 type  1   force =    -0.01396128    0.00804540   -0.00025830
     atom    9 type  1   force =     0.00000593    0.00000314   -0.00040234
     atom   10 type  1   force =     0.00001199    0.00084208   -0.00036810
     atom   11 type  1   force =     0.00074798   -0.00040493   -0.00040139
     atom   12 type  1   force =    -0.00068747   -0.00041696   -0.00036687
     atom   13 type  2   force =    -0.00001792    0.00000046    0.00120169

     Total force =     0.002029     Total SCF correction =     0.000700
     SCF correction compared to forces is large: reduce conv_thr to get better values

     entering subroutine stress ...

     negative rho (up, down):  1.460E-02 0.000E+00
          total   stress  (Ry/bohr**3)                   (kbar)     P=  -12.84
  -0.00011752  -0.00000008   0.00000006        -17.29     -0.01      0.01
  -0.00000008  -0.00011755   0.00000003         -0.01    -17.29      0.00
   0.00000006   0.00000003  -0.00002686          0.01      0.00     -3.95

     bfgs converged in  16 scf cycles and  15 bfgs steps
     (criteria: energy <  1.0E+00, force <  1.9E-03)

     End of BFGS Geometry Optimization

     Final energy   =   -2135.1752775290 Ry
Begin final coordinates

ATOMIC_POSITIONS (crystal)
Cr1      0.166666667   0.166666667   0.413381306    0   0   0
Cr1      0.666666667   0.166666667   0.413381306    0   0   0
Cr1      0.166666667   0.666666667   0.413381306    0   0   0
Cr1      0.666666667   0.666666667   0.413381306    0   0   0
Cr1      0.833333333   0.333333333   0.500000000    0   0   0
Cr1      0.333333333   0.333333333   0.500000000    0   0   0
Cr1      0.833333333   0.833333333   0.500000000    0   0   0
Cr1      0.333333333   0.833333333   0.500000000    0   0   0
Cr1     -0.000003161   0.000024393   0.596629073
Cr1      0.501922177  -0.003865450   0.579834878
Cr1     -0.003824515   0.501972188   0.579765762
Cr1      0.501992750   0.501961517   0.579836050
N1      -0.000039544  -0.000007533   0.661669242
End final coordinates

     Writing output data file calc.save

     General routines

     Parallel routines

   This run was terminated on:  15:57:23   2May2018

   JOB DONE.
Job  /afs/slac/g/suncat/bin/suncat-tsmpirun -x LD_LIBRARY_PATH -wdir /scratch/qe657805_xgH07 pw.x -npool 4 -in pw.inp

TID   HOST_NAME   COMMAND_LINE            STATUS            TERMINATION_TIME
00000 suncat0049 pw.x -npool 4 -i  Done                     05/02/2018 15:57:23
00001 suncat0049 pw.x -npool 4 -i  Done                     05/02/2018 15:57:23
00002 suncat0049 pw.x -npool 4 -i  Done                     05/02/2018 15:57:23
00003 suncat0049 pw.x -npool 4 -i  Done                     05/02/2018 15:57:23
00004 suncat0049 pw.x -npool 4 -i  Done                     05/02/2018 15:57:23
00005 suncat0049 pw.x -npool 4 -i  Done                     05/02/2018 15:57:23
00006 suncat0049 pw.x -npool 4 -i  Done                     05/02/2018 15:57:23
00007 suncat0049 pw.x -npool 4 -i  Done                     05/02/2018 15:57:23
00008 suncat0194 pw.x -npool 4 -i  Done                     05/02/2018 15:57:23
00009 suncat0194 pw.x -npool 4 -i  Done                     05/02/2018 15:57:23
00010 suncat0194 pw.x -npool 4 -i  Done                     05/02/2018 15:57:23
00011 suncat0194 pw.x -npool 4 -i  Done                     05/02/2018 15:57:23
00012 suncat0194 pw.x -npool 4 -i  Done                     05/02/2018 15:57:23
00013 suncat0194 pw.x -npool 4 -i  Done                     05/02/2018 15:57:23
00014 suncat0194 pw.x -npool 4 -i  Done                     05/02/2018 15:57:23
00015 suncat0194 pw.x -npool 4 -i  Done                     05/02/2018 15:57:23
00016 suncat0188 pw.x -npool 4 -i  Done                     05/02/2018 15:57:23
00017 suncat0188 pw.x -npool 4 -i  Done                     05/02/2018 15:57:23
00018 suncat0188 pw.x -npool 4 -i  Done                     05/02/2018 15:57:23
00019 suncat0188 pw.x -npool 4 -i  Done                     05/02/2018 15:57:23
00020 suncat0188 pw.x -npool 4 -i  Done                     05/02/2018 15:57:23
00021 suncat0188 pw.x -npool 4 -i  Done                     05/02/2018 15:57:23
00022 suncat0188 pw.x -npool 4 -i  Done                     05/02/2018 15:57:23
00023 suncat0188 pw.x -npool 4 -i  Done                     05/02/2018 15:57:23
00024 suncat0147 pw.x -npool 4 -i  Done                     05/02/2018 15:57:23
00025 suncat0147 pw.x -npool 4 -i  Done                     05/02/2018 15:57:23
00026 suncat0147 pw.x -npool 4 -i  Done                     05/02/2018 15:57:23
00027 suncat0147 pw.x -npool 4 -i  Done                     05/02/2018 15:57:23
00028 suncat0147 pw.x -npool 4 -i  Done                     05/02/2018 15:57:23
00029 suncat0147 pw.x -npool 4 -i  Done                     05/02/2018 15:57:23
00030 suncat0147 pw.x -npool 4 -i  Done                     05/02/2018 15:57:23
00031 suncat0147 pw.x -npool 4 -i  Done                     05/02/2018 15:57:23