     Program PWSCF v.5.1rc2 (svn rev. 11289) starts on 30Apr2018 at 16:58:20

     Current dimensions of program PWSCF are:
     Max number of different atomic species (ntypx) = 10
     Max number of k-points (npk) =  40000
     Max angular momentum in pseudopotentials (lmaxx) =  3
     Presently stress not available with electric field

     IMPORTANT: XC functional enforced from input :
     Exchange-correlation      = BEEF-VDW ( 1  4 27 13 2)
     Any further DFT definition will be discarded
     Please, verify this is what you really want

     Subspace diagonalization in iterative solution of the eigenvalue problem:
     a serial algorithm will be used

     bravais-lattice index     =            0
     lattice parameter (alat)  =       1.8897  a.u.
     unit-cell volume          =    4650.5773 (a.u.)^3
     number of atoms/cell      =           13
     number of atomic types    =            2
     number of electrons       =        42.00
     number of Kohn-Sham states=           31
     kinetic-energy cutoff     =      36.7493  Ry
     charge density cutoff     =     367.4932  Ry
     convergence threshold     =      1.0E-05
     mixing beta               =       0.3000
     number of iterations used =           10  plain     mixing
     Exchange-correlation      = BEEF-VDW ( 1  4 27 13 2)
     nstep                     =           50

     celldm(1)=   1.889726  celldm(2)=   0.000000  celldm(3)=   0.000000
     celldm(4)=   0.000000  celldm(5)=   0.000000  celldm(6)=   0.000000

     crystal axes: (cart. coord. in units of alat)
               a(1) = (   5.682886   0.000000   0.000000 )
               a(2) = (   2.841443   4.921524   0.000000 )
               a(3) = (   0.000000   0.000000  24.640057 )

     reciprocal axes: (cart. coord. in units 2 pi/alat)
               b(1) = (  0.175967 -0.101595  0.000000 )
               b(2) = (  0.000000  0.203189  0.000000 )
               b(3) = (  0.000000  0.000000  0.040584 )

     PseudoPot. # 1 for Al read from file:
     /u/if/mamunm/psp/gbrv1.5pbe/Al.UPF
     MD5 check sum: 0a6289f5291fc8f409219462bc851e1f
     Pseudo is Ultrasoft + core correction, Zval =  3.0
     Generated by new atomic code, or converted to UPF format
     Using radial grid of  893 points,  3 beta functions with:
                l(1) =   0
                l(2) =   1
                l(3) =   2
     Q(r) pseudized with  8 coefficients,  rinner =    0.900   0.900   0.900
                                                       0.900   0.900

     PseudoPot. # 2 for S  read from file:
     /u/if/mamunm/psp/gbrv1.5pbe/S.UPF
     MD5 check sum: 88d86576ff6df21479756cfb9bdac1df
     Pseudo is Ultrasoft + core correction, Zval =  6.0
     Generated by new atomic code, or converted to UPF format
     Using radial grid of  907 points,  6 beta functions with:
                l(1) =   0
                l(2) =   0
                l(3) =   1
                l(4) =   1
                l(5) =   2
                l(6) =   2
     Q(r) pseudized with  8 coefficients,  rinner =    1.300   1.300   1.300
                                                       1.300   1.300

     vdW kernel table read from file vdW_kernel_table
     MD5 check sum: 095c7af220d748ca6e76c0b4c6cfb241

     atomic species   valence    mass     pseudopotential
        Al1            3.00    26.98154     Al( 1.00)
        S1             6.00    32.06000     S ( 1.00)

     No symmetry found

   Cartesian axes

     site n.     atom                  positions (alat units)
         1           Al1 tau(   1) = (   1.4207216   0.8202540  10.0000000  )
         2           Al1 tau(   2) = (   4.2621647   0.8202540  10.0000000  )
         3           Al1 tau(   3) = (   2.8414431   3.2810159  10.0000000  )
         4           Al1 tau(   4) = (   5.6828862   3.2810159  10.0000000  )
         5           Al1 tau(   5) = (   5.6828862   1.6405079  12.3200286  )
         6           Al1 tau(   6) = (   2.8414431   1.6405079  12.3200286  )
         7           Al1 tau(   7) = (   7.1036078   4.1012699  12.3200286  )
         8           Al1 tau(   8) = (   4.2621647   4.1012699  12.3200286  )
         9           Al1 tau(   9) = (   0.0000000   0.0000000  14.6400572  )
        10           Al1 tau(  10) = (   2.8414431   0.0000000  14.6400572  )
        11           Al1 tau(  11) = (   1.4207216   2.4607619  14.6400572  )
        12           Al1 tau(  12) = (   4.2621647   2.4607619  14.6400572  )
        13           S1  tau(  13) = (   0.0000000   0.0000000  16.5610572  )

     number of k points=    20  Fermi-Dirac smearing, width (Ry)=  0.0110
                       cart. coord. in units 2pi/alat
        k(    1) = (   0.0000000   0.0000000   0.0000000), wk =   0.0555556
        k(    2) = (   0.0000000   0.0338648   0.0000000), wk =   0.1111111
        k(    3) = (   0.0000000   0.0677297   0.0000000), wk =   0.1111111
        k(    4) = (   0.0000000  -0.1015945   0.0000000), wk =   0.0555556
        k(    5) = (   0.0293278  -0.0169324   0.0000000), wk =   0.1111111
        k(    6) = (   0.0293278   0.0169324   0.0000000), wk =   0.1111111
        k(    7) = (   0.0293278   0.0507973   0.0000000), wk =   0.1111111
        k(    8) = (   0.0293278  -0.1185270   0.0000000), wk =   0.1111111
        k(    9) = (   0.0293278  -0.0846621   0.0000000), wk =   0.1111111
        k(   10) = (   0.0293278  -0.0507973   0.0000000), wk =   0.1111111
        k(   11) = (   0.0586556  -0.0338648   0.0000000), wk =   0.1111111
        k(   12) = (   0.0586556   0.0000000   0.0000000), wk =   0.1111111
        k(   13) = (   0.0586556   0.0338648   0.0000000), wk =   0.1111111
        k(   14) = (   0.0586556  -0.1354594   0.0000000), wk =   0.1111111
        k(   15) = (   0.0586556  -0.1015945   0.0000000), wk =   0.1111111
        k(   16) = (   0.0586556  -0.0677297   0.0000000), wk =   0.1111111
        k(   17) = (  -0.0879835   0.0507973   0.0000000), wk =   0.0555556
        k(   18) = (  -0.0879835   0.0846621   0.0000000), wk =   0.1111111
        k(   19) = (  -0.0879835   0.1185270   0.0000000), wk =   0.1111111
        k(   20) = (  -0.0879835  -0.0507973   0.0000000), wk =   0.0555556

     Largest allocated arrays     est. size (Mb)     dimensions
     Largest temporary arrays     est. size (Mb)     dimensions

     Initial potential from superposition of free atoms
     Check: negative starting charge=   -0.000145

     starting charge   41.97038, renormalised to   42.00000

     negative rho (up, down):  1.454E-04 0.000E+00

     *
     * You are using vdW-DF for exchange-correlation in this calculation.
     * Please cite the following three references that made this development
     * possible:
     *
     *   M. Dion, H. Rydberg, E. Schroder, D. C. Langreth, and
     *   B. I. Lundqvist, Phys. Rev. Lett. 92, 246401 (2004).
     *
     *   T. Thonhauser, V. R. Cooper, S. Li, A. Puzder, P. Hyldgaard, and
     *   D. C. Langreth, Phys. Rev. B 76, 125112 (2007).
     *
     *   G. Roman-Perez and J. M. Soler, Phys. Rev. Lett. 103, 096102 (2009).
     *
     *
     * If you are using vdW-DF2, please also cite:
     *
     *   K. Lee, E. D. Murray, L. Kong, B. I. Lundqvist, and
     *   D. C. Langreth, Phys. Rev. B 82, 081101(R) (2010).
     *
     *
     * If you are calculating the stress with vdW-DF, please also cite:
     *
     *   R. Sabatini, E. Kucukbenli, B. Kolb, T. Thonhauser, and
     *   S. de Gironcoli, J. Phys.: Condens. Matter 24, 424209 (2012).
     *

     Carrying out vdW-DF run using the following parameters:

     Nqs =      20    Nr_points =    1024   r_max =   100.000
     q_mesh =
               0.00001000     0.04494208     0.09755937     0.15916263
               0.23128650     0.31572767     0.41458969     0.53033537
               0.66584808     0.82450364     1.01025438     1.22772762
               1.48234092     1.78043706     2.12944203     2.53805004
               3.01644009     3.57652955     4.23227104     5.00000000

     Gradients computed in reciprocal space

     Adding external electric field

     Computed dipole along edir(3) :
        Dipole               -0.0336 Ry au,         -0.0855 Debye
        Dipole field         -0.0001 Ry au

        Potential amp.        0.0083 Ry
        Total length         45.3989 bohr

     Starting wfc are   52 randomized atomic wfcs

     Self-consistent Calculation

     iteration #  1     ecut=    36.75 Ry     beta=0.30
     Davidson diagonalization with overlap
     ethr =  1.00E-02,  avg # of iterations =  3.0

[...]

     total energy              =    -106.56524554 Ry
     Harris-Foulkes estimate   =    -106.94479623 Ry
     estimated scf accuracy    <       0.91399816 Ry

[...]

     End of self-consistent calculation

          k = 0.0000 0.0000 0.0000 ( 17579 PWs)   bands (ev):

   -13.5943 -11.6145  -9.8268  -7.1184  -5.8072  -5.8072  -5.8038  -5.7342
    -5.7342  -5.7001  -4.6766  -4.6766  -4.6261  -4.2749  -3.9590  -3.9070
    -3.9070  -2.9703  -2.7146  -2.7146  -1.4332  -1.4332  -1.3089  -0.6540
    -0.6540  -0.6132   0.2177   1.5618   1.5618   1.6070   1.8910

[...]

          k =-0.0880 0.0508 0.0000 ( 17464 PWs)   bands (ev):

[...]

     the Fermi energy is    -1.0436 ev

!    total energy              =    -106.78533647 Ry
     Harris-Foulkes estimate   =    -106.78529213 Ry
     estimated scf accuracy    <       0.00000424 Ry

     The total energy is the sum of the following terms:

     one-electron contribution =    -739.50898563 Ry
     hartree contribution      =     378.03604623 Ry
     xc contribution           =     -62.00436851 Ry
     ewald contribution        =     316.72266213 Ry
     electric field correction =       0.00062493 Ry
     smearing contrib. (-TS)   =      -0.03131562 Ry

     convergence has been achieved in  10 iterations

 BEEF-vdW xc energy contributions
           1 :   -51.0623721245154
           2 :    43.8665190023211
           3 :   -32.7455786809104
           4 :    21.9777024443251
           5 :   -14.3772555336879
           6 :    10.2771063474324
           7 :   -8.25400797148802
           8 :    6.71508188184162
           9 :   -5.04358588580653
          10 :    3.59558874269007
          11 :   -2.88682612025215
          12 :    2.87790295171924
          13 :   -2.98271204474274
          14 :    2.65087338562586
          15 :   -1.86988039516054
          16 :    1.10350872729133
          17 :  -0.788357346305546
          18 :   0.916950394736986
          19 :   -1.09016562321266
          20 :   0.930332427237261
          21 :  -0.424281862531032
          22 :  -0.113684169729950
          23 :   0.372750833003607
          24 :  -0.325020609114603
          25 :   0.202677992487210
          26 :  -0.237609111268654
          27 :   0.440967713321101
          28 :  -0.627825589902535
          29 :   0.631478662249854
          30 :  -0.475649831029386
          31 :   -7.47904644253430
          32 :   -5.41849928792088

     Forces acting on atoms (Ry/au):

     negative rho (up, down):  4.000E-04 0.000E+00
     atom    1 type  1   force =     0.00208358    0.00120329   -0.00075809
     atom    2 type  1   force =    -0.00208395    0.00120339   -0.00075960
     atom    3 type  1   force =    -0.00000000   -0.00240649   -0.00075961
     atom    4 type  1   force =    -0.00000004    0.00000010   -0.00258833
     atom    5 type  1   force =     0.00000003   -0.00034888    0.00667425
     atom    6 type  1   force =     0.00000019    0.00000044   -0.00628559
     atom    7 type  1   force =     0.00030221    0.00017471    0.00667414
     atom    8 type  1   force =    -0.00030214    0.00017449    0.00667445
     atom    9 type  1   force =     0.00000004    0.00000006   -0.20817003
     atom   10 type  1   force =    -0.00000041   -0.00308259   -0.00334345
     atom   11 type  1   force =    -0.00266954    0.00154098   -0.00334349
     atom   12 type  1   force =     0.00266966    0.00154111   -0.00334344
     atom   13 type  2   force =     0.00000037   -0.00000062    0.20932880

     Total force =     0.295322     Total SCF correction =     0.002373

     entering subroutine stress ...

     negative rho (up, down):  4.000E-04 0.000E+00
          total   stress  (Ry/bohr**3)                   (kbar)     P=    3.40
  -0.00004493   0.00000000   0.00000000         -6.61      0.00      0.00
   0.00000000  -0.00004493  -0.00000000          0.00     -6.61     -0.00
   0.00000000  -0.00000000   0.00015911          0.00     -0.00     23.41

     BFGS Geometry Optimization

     number of scf cycles    =   1
     number of bfgs steps    =   0

     energy   new            =    -106.7853364669 Ry

     new trust radius        =       0.2093288014 bohr
     new conv_thr            =       0.0000099958 Ry

ATOMIC_POSITIONS (crystal)
Al1      0.166666667   0.166666667   0.405843214    0   0   0
Al1      0.666666667   0.166666667   0.405843214    0   0   0
Al1      0.166666667   0.666666667   0.405843214    0   0   0
Al1      0.666666667   0.666666667   0.405843214    0   0   0
Al1      0.833333333   0.333333333   0.500000000    0   0   0
Al1      0.333333333   0.333333333   0.500000000    0   0   0
Al1      0.833333333   0.833333333   0.500000000    0   0   0
Al1      0.333333333   0.833333333   0.500000000    0   0   0
Al1      0.000000001   0.000000006   0.589686064
Al1      0.500165686  -0.000331450   0.594084981
Al1     -0.000331427   0.500165690   0.594084980
Al1      0.500165740   0.500165704   0.594084981
S1       0.000000068  -0.000000066   0.676614875

     Writing output data file calc.save
     Check: negative starting charge=   -0.000145
     NEW-OLD atomic charge density approx. for the potential
     Check: negative starting charge=   -0.000141

[...]

     Total force =     0.007527     Total SCF correction =     0.002075
     SCF correction compared to forces is large: reduce conv_thr to get better values

[...]

     energy   old            =    -106.7853364669 Ry
     energy   new            =    -106.8235130297 Ry

     CASE: energy  _new < energy  _old

[...]

     number of scf cycles    =   3
     number of bfgs steps    =   2

     energy   old            =    -106.8235130297 Ry
     energy   new            =    -106.8235648661 Ry

     CASE: energy  _new < energy  _old

     new trust radius        =       0.0052003828 bohr
     new conv_thr            =       0.0000001000 Ry

ATOMIC_POSITIONS (crystal)
Al1      0.166666667   0.166666667   0.405843214    0   0   0
Al1      0.666666667   0.166666667   0.405843214    0   0   0
Al1      0.166666667   0.666666667   0.405843214    0   0   0
Al1      0.666666667   0.666666667   0.405843214    0   0   0
Al1      0.833333333   0.333333333   0.500000000    0   0   0
Al1      0.333333333   0.333333333   0.500000000    0   0   0
Al1      0.833333333   0.833333333   0.500000000    0   0   0
Al1      0.333333333   0.833333333   0.500000000    0   0   0
Al1     -0.000000033   0.000000014   0.589558620
Al1      0.500486212  -0.000972483   0.594203559
Al1     -0.000972441   0.500486216   0.594203551
Al1      0.500486241   0.500486198   0.594203553
S1       0.000000069  -0.000000035   0.676827404

     Writing output data file calc.save
     Check: negative starting charge=   -0.000141
     NEW-OLD atomic charge density approx. for the potential
     Check: negative starting charge=   -0.000141

[...]

     Self-consistent Calculation

[...]

     Threshold (ethr) on eigenvalues was too large:
     Diagonalizing with lowered threshold

     Davidson diagonalization with overlap
     ethr =  1.85E-08,  avg # of iterations =  3.0

[...]

     total energy              =    -106.82360582 Ry
     Harris-Foulkes estimate   =    -106.82360610 Ry
     estimated scf accuracy    <       0.00000011 Ry

     iteration #  6     ecut=    36.75 Ry     beta=0.30
     Davidson diagonalization with overlap
     ethr =  2.58E-10,  avg # of iterations =  3.0

[...]

     negative rho (up, down):  3.579E-04 0.000E+00

     Adding external electric field

     Computed dipole along edir(3) :
        Dipole               -0.5287 Ry au,         -1.3438 Debye
        Dipole field         -0.0014 Ry au

        Potential amp.        0.1297 Ry
        Total length         45.3989 bohr

     End of self-consistent calculation

[...]

          k = 0.0587-0.0677 0.0000 ( 17495 PWs)   bands (ev):

[...]

          k =-0.0880-0.0508 0.0000 ( 17464 PWs)   bands (ev):

   -12.9826 -10.2841 -10.2723  -8.6088  -8.4917  -7.3266  -7.3241  -5.9831
    -5.8406  -5.7367  -5.6780  -3.7479  -3.5799  -3.3541  -2.9825  -2.0210
    -1.8675  -1.7442  -1.5156  -1.5075  -1.2300  -1.0823  -0.1737  -0.0328
     0.3180   0.5305   0.6242   0.7192   0.9410   1.4443   1.6682

     the Fermi energy is    -1.1317 ev

!    total energy              =    -106.82360580 Ry
     Harris-Foulkes estimate   =    -106.82360585 Ry
     estimated scf accuracy    <       0.00000007 Ry

     The total energy is the sum of the following terms:

     one-electron contribution =    -733.07150978 Ry
     hartree contribution      =     374.71997225 Ry
     xc contribution           =     -61.89014789 Ry
     ewald contribution        =     313.44950507 Ry
     electric field correction =       0.00075530 Ry
     smearing contrib. (-TS)   =      -0.03218076 Ry

     convergence has been achieved in   6 iterations

 BEEF-vdW xc energy contributions
           1 :   -50.9515027470470
           2 :    43.7420450111961
           3 :   -32.6104748158969
           4 :    21.8533204337346
           5 :   -14.2904847927672
           6 :    10.2445060681589
           7 :   -8.27270241298066
           8 :    6.76432568560040
           9 :   -5.09474182246933
          10 :    3.62506120956056
          11 :   -2.88601093521560
          12 :    2.85549653432971
          13 :   -2.95800259830821
          14 :    2.64217480077232
          15 :   -1.88568921662898
          16 :    1.14152447607945
          17 :  -0.841141057332642
          18 :   0.977783720888411
          19 :   -1.15381243431101
          20 :   0.990264748550651
          21 :  -0.472203362730738
          22 :  -8.311556201108772E-002
          23 :   0.356064335069490
          24 :  -0.310395066645206
          25 :   0.178958406778527
          26 :  -0.205043071954940
          27 :   0.413796223104164
          28 :  -0.625459086309590
          29 :   0.665160744804275
          30 :  -0.541554686223897
          31 :   -7.47173342949659
          32 :   -5.40895257199858

     Forces acting on atoms (Ry/au):

     negative rho (up, down):  3.579E-04 0.000E+00
     atom    1 type  1   force =     0.00217570    0.00125613   -0.00071424
     atom    2 type  1   force =    -0.00217570    0.00125613   -0.00071424
     atom    3 type  1   force =     0.00000000   -0.00251228   -0.00071424
     atom    4 type  1   force =    -0.00000001    0.00000001   -0.00276809
     atom    5 type  1   force =     0.00000000    0.00385215    0.00136614
     atom    6 type  1   force =     0.00000001    0.00000000   -0.00568415
     atom    7 type  1   force =    -0.00333604   -0.00192607    0.00136617
     atom    8 type  1   force =     0.00333604   -0.00192607    0.00136617
     atom    9 type  1   force =     0.00000002   -0.00000001    0.00129966
     atom   10 type  1   force =     0.00000000   -0.00112048    0.00175080
     atom   11 type  1   force =    -0.00097039    0.00056025    0.00175082
     atom   12 type  1   force =     0.00097035    0.00056026    0.00175079
     atom   13 type  2   force =     0.00000002   -0.00000002   -0.00005560

     Total force =     0.003828     Total SCF correction =     0.000350

     entering subroutine stress ...

     negative rho (up, down):  3.579E-04 0.000E+00
          total   stress  (Ry/bohr**3)                   (kbar)     P=   -4.26
  -0.00004887   0.00000000   0.00000000         -7.19      0.00      0.00
   0.00000000  -0.00004887  -0.00000000          0.00     -7.19     -0.00
   0.00000000  -0.00000000   0.00001076          0.00     -0.00      1.58

     bfgs converged in   4 scf cycles and   3 bfgs steps
     (criteria: energy <  1.0E+00, force <  1.9E-03)

     End of BFGS Geometry Optimization

     Final energy   =    -106.8236058019 Ry
Begin final coordinates

ATOMIC_POSITIONS (crystal)
Al1      0.166666667   0.166666667   0.405843214    0   0   0
Al1      0.666666667   0.166666667   0.405843214    0   0   0
Al1      0.166666667   0.666666667   0.405843214    0   0   0
Al1      0.666666667   0.666666667   0.405843214    0   0   0
Al1      0.833333333   0.333333333   0.500000000    0   0   0
Al1      0.333333333   0.333333333   0.500000000    0   0   0
Al1      0.833333333   0.833333333   0.500000000    0   0   0
Al1      0.333333333   0.833333333   0.500000000    0   0   0
Al1     -0.000000033   0.000000014   0.589558620
Al1      0.500486212  -0.000972483   0.594203559
Al1     -0.000972441   0.500486216   0.594203551
Al1      0.500486241   0.500486198   0.594203553
S1       0.000000069  -0.000000035   0.676827404
End final coordinates

     Writing output data file calc.save

     General routines

     Parallel routines

   This run was terminated on:  17: 7:20  30Apr2018

   JOB DONE.
Job  /afs/slac/g/suncat/bin/suncat-tsmpirun -x LD_LIBRARY_PATH -wdir /scratch/qe537871_IaULk pw.x -npool 4 -in pw.inp

TID   HOST_NAME   COMMAND_LINE            STATUS            TERMINATION_TIME
00000 suncat0012 pw.x -npool 4 -i  Done                     04/30/2018 17:07:20
00001 suncat0012 pw.x -npool 4 -i  Done                     04/30/2018 17:07:20
00002 suncat0012 pw.x -npool 4 -i  Done                     04/30/2018 17:07:20
00003 suncat0012 pw.x -npool 4 -i  Done                     04/30/2018 17:07:20
00004 suncat0012 pw.x -npool 4 -i  Done                     04/30/2018 17:07:20
00005 suncat0012 pw.x -npool 4 -i  Done                     04/30/2018 17:07:20
00006 suncat0012 pw.x -npool 4 -i  Done                     04/30/2018 17:07:20
00007 suncat0012 pw.x -npool 4 -i  Done                     04/30/2018 17:07:20
00008 suncat0174 pw.x -npool 4 -i  Done                     04/30/2018 17:07:20
00009 suncat0174 pw.x -npool 4 -i  Done                     04/30/2018 17:07:20
00010 suncat0174 pw.x -npool 4 -i  Done                     04/30/2018 17:07:20
00011 suncat0174 pw.x -npool 4 -i  Done                     04/30/2018 17:07:20
00012 suncat0174 pw.x -npool 4 -i  Done                     04/30/2018 17:07:20
00013 suncat0174 pw.x -npool 4 -i  Done                     04/30/2018 17:07:20
00014 suncat0174 pw.x -npool 4 -i  Done                     04/30/2018 17:07:20
00015 suncat0174 pw.x -npool 4 -i  Done                     04/30/2018 17:07:20
00016 suncat0168 pw.x -npool 4 -i  Done                     04/30/2018 17:07:20
00017 suncat0168 pw.x -npool 4 -i  Done                     04/30/2018 17:07:20
00018 suncat0168 pw.x -npool 4 -i  Done                     04/30/2018 17:07:20
00019 suncat0168 pw.x -npool 4 -i  Done                     04/30/2018 17:07:20
00020 suncat0168 pw.x -npool 4 -i  Done                     04/30/2018 17:07:20
00021 suncat0168 pw.x -npool 4 -i  Done                     04/30/2018 17:07:20
00022 suncat0168 pw.x -npool 4 -i  Done                     04/30/2018 17:07:20
00023 suncat0168 pw.x -npool 4 -i  Done                     04/30/2018 17:07:20
00024 suncat0156 pw.x -npool 4 -i  Done                     04/30/2018 17:07:20
00025 suncat0156 pw.x -npool 4 -i  Done                     04/30/2018 17:07:20
00026 suncat0156 pw.x -npool 4 -i  Done                     04/30/2018 17:07:20
00027 suncat0156 pw.x -npool 4 -i  Done                     04/30/2018 17:07:20
00028 suncat0156 pw.x -npool 4 -i  Done                     04/30/2018 17:07:20
00029 suncat0156 pw.x -npool 4 -i  Done                     04/30/2018 17:07:20
00030 suncat0156 pw.x -npool 4 -i  Done                     04/30/2018 17:07:20
00031 suncat0156 pw.x -npool 4 -i  Done                     04/30/2018 17:07:20