     Program PWSCF v.5.1rc2 (svn rev. ) starts on 23Apr2018 at  5:28:56

     Current dimensions of program PWSCF are:
     Max number of different atomic species (ntypx) = 10
     Max number of k-points (npk) =  40000
     Max angular momentum in pseudopotentials (lmaxx) =  3
     Presently stress not available with electric field

     IMPORTANT: XC functional enforced from input :
     Exchange-correlation      = BEEF-VDW ( 1  4 27 13 2)
     Any further DFT definition will be discarded
     Please, verify this is what you really want

     Subspace diagonalization in iterative solution of the eigenvalue problem:
     a serial algorithm will be used

     bravais-lattice index     =            0
     lattice parameter (alat)  =       1.8897  a.u.
     unit-cell volume          =    5185.0501 (a.u.)^3
     number of atoms/cell      =           14
     number of atomic types    =            3
     number of electrons       =       161.00
     number of Kohn-Sham states=           90
     kinetic-energy cutoff     =      36.7493  Ry
     charge density cutoff     =     367.4932  Ry
     convergence threshold     =      1.0E-05
     mixing beta               =       0.3000
     number of iterations used =           10  plain     mixing
     Exchange-correlation      = BEEF-VDW ( 1  4 27 13 2)
     nstep                     =           50

     celldm(1)=   1.889726  celldm(2)=   0.000000  celldm(3)=   0.000000
     celldm(4)=   0.000000  celldm(5)=   0.000000  celldm(6)=   0.000000

     crystal axes: (cart. coord. in units of alat)
               a(1) = (   5.972022   0.000000   0.000000 )
               a(2) = (   2.986011   5.171923   0.000000 )
               a(3) = (   0.000000   0.000000  24.876136 )

     reciprocal axes: (cart. coord. in units 2 pi/alat)
               b(1) = (  0.167447 -0.096676  0.000000 )
               b(2) = (  0.000000  0.193352  0.000000 )
               b(3) = (  0.000000  0.000000  0.040199 )

     PseudoPot. # 1 for Ta read from file:
     /home/mamunm/src/pseudo/gbrv1.5pbe/Ta.UPF
     MD5 check sum: f8bbe9446314a3b8ea5d9f3e3836c939
     Pseudo is Ultrasoft + core correction, Zval = 13.0
     Generated by new atomic code, or converted to UPF format
     Using radial grid of  921 points,  7 beta functions with:
                l(1) =   0
                l(2) =   0
                l(3) =   1
                l(4) =   1
                l(5) =   2
                l(6) =   2
                l(7) =   3
     Q(r) pseudized with  6 coefficients,  rinner =    1.300   1.300   1.300
                                                       1.300   1.300   1.300
                                                       1.300

     PseudoPot. # 2 for C  read from file:
     /home/mamunm/src/pseudo/gbrv1.5pbe/C.UPF
     MD5 check sum: d1aef80898a10debaa0f26306b886e00
     Pseudo is Ultrasoft + core correction, Zval =  4.0
     Generated by new atomic code, or converted to UPF format
     Using radial grid of  721 points,  4 beta functions with:
                l(1) =   0
                l(2) =   0
                l(3) =   1
                l(4) =   1
     Q(r) pseudized with  8 coefficients,  rinner =    1.100   1.100   1.100

     PseudoPot. # 3 for H  read from file:
     /home/mamunm/src/pseudo/gbrv1.5pbe/H.UPF
     MD5 check sum: 761ae9a214b05c3daf00ab9f6b793d6f
     Pseudo is Ultrasoft, Zval =  1.0
     Generated by new atomic code, or converted to UPF format
     Using radial grid of  615 points,  2 beta functions with:
                l(1) =   0
                l(2) =   0
     Q(r) pseudized with  8 coefficients,  rinner =    0.700

     vdW kernel table read from file vdW_kernel_table
     MD5 check sum: 095c7af220d748ca6e76c0b4c6cfb241

     atomic species   valence    mass     pseudopotential
        Ta1           13.00   180.94788     Ta( 1.00)
        C1             4.00    12.01100     C ( 1.00)
        H1             1.00     1.00800     H ( 1.00)

     No symmetry found

   Cartesian axes

     site n.     atom                  positions (alat units)
         1           Ta1 tau(   1) = (   1.4930055   0.8619871  10.0000000  )
         2           Ta1 tau(   2) = (   4.4790165   0.8619871  10.0000000  )
         3           Ta1 tau(   3) = (   2.9860110   3.4479485  10.0000000  )
         4           Ta1 tau(   4) = (   5.9720221   3.4479485  10.0000000  )
         5           Ta1 tau(   5) = (   5.9720221   1.7239743  12.4380678  )
         6           Ta1 tau(   6) = (   2.9860110   1.7239743  12.4380678  )
         7           Ta1 tau(   7) = (   7.4650276   4.3099357  12.4380678  )
         8           Ta1 tau(   8) = (   4.4790165   4.3099357  12.4380678  )
         9           Ta1 tau(   9) = (   0.0000000   0.0000000  14.8761356  )
        10           Ta1 tau(  10) = (   2.9860110   0.0000000  14.8761356  )
        11           Ta1 tau(  11) = (   1.4930055   2.5859614  14.8761356  )
        12           Ta1 tau(  12) = (   4.4790165   2.5859614  14.8761356  )
        13           C1  tau(  13) = (   0.0000000   0.0000000  16.9671356  )
        14           H1  tau(  14) = (   0.0000000   0.0000000  18.0671356  )

     number of k points=    20  Fermi-Dirac smearing, width (Ry)=  0.0110
                       cart. coord. in units 2pi/alat
        k(    1) = (   0.0000000   0.0000000   0.0000000), wk =   0.0555556
        k(    2) = (   0.0000000   0.0322253   0.0000000), wk =   0.1111111
        k(    3) = (   0.0000000   0.0644506   0.0000000), wk =   0.1111111
        k(    4) = (   0.0000000  -0.0966758   0.0000000), wk =   0.0555556
        k(    5) = (   0.0279079  -0.0161126   0.0000000), wk =   0.1111111
        k(    6) = (   0.0279079   0.0161126   0.0000000), wk =   0.1111111
        k(    7) = (   0.0279079   0.0483379   0.0000000), wk =   0.1111111
        k(    8) = (   0.0279079  -0.1127885   0.0000000), wk =   0.1111111
        k(    9) = (   0.0279079  -0.0805632   0.0000000), wk =   0.1111111
        k(   10) = (   0.0279079  -0.0483379   0.0000000), wk =   0.1111111
        k(   11) = (   0.0558158  -0.0322253   0.0000000), wk =   0.1111111
        k(   12) = (   0.0558158   0.0000000   0.0000000), wk =   0.1111111
        k(   13) = (   0.0558158   0.0322253   0.0000000), wk =   0.1111111
        k(   14) = (   0.0558158  -0.1289011   0.0000000), wk =   0.1111111
        k(   15) = (   0.0558158  -0.0966758   0.0000000), wk =   0.1111111
        k(   16) = (   0.0558158  -0.0644506   0.0000000), wk =   0.1111111
        k(   17) = (  -0.0837237   0.0483379   0.0000000), wk =   0.0555556
        k(   18) = (  -0.0837237   0.0805632   0.0000000), wk =   0.1111111
        k(   19) = (  -0.0837237   0.1127885   0.0000000), wk =   0.1111111
        k(   20) = (  -0.0837237  -0.0483379   0.0000000), wk =   0.0555556

     Largest allocated arrays     est. size (Mb)     dimensions
     Largest temporary arrays     est. size (Mb)     dimensions

     Initial potential from superposition of free atoms
     Check: negative starting charge=   -1.121532

     starting charge  160.98661, renormalised to  161.00000

     negative rho (up, down):  1.122E+00 0.000E+00

     *
     * You are using vdW-DF for exchange-correlation in this calculation.
     * Please cite the following three references that made this development
     * possible:
     *
     *   M. Dion, H. Rydberg, E. Schroder, D. C. Langreth, and
     *   B. I. Lundqvist, Phys. Rev. Lett. 92, 246401 (2004).
     *
     *   T. Thonhauser, V. R. Cooper, S. Li, A. Puzder, P. Hyldgaard, and
     *   D. C. Langreth, Phys. Rev. B 76, 125112 (2007).
     *
     *   G. Roman-Perez and J. M. Soler, Phys. Rev. Lett. 103, 096102 (2009).
     *
     *
     * If you are using vdW-DF2, please also cite:
     *
     *   K. Lee, E. D. Murray, L. Kong, B. I. Lundqvist, and
     *   D. C. Langreth, Phys. Rev. B 82, 081101(R) (2010).
     *
     *
     * If you are calculating the stress with vdW-DF, please also cite:
     *
     *   R. Sabatini, E. Kucukbenli, B. Kolb, T. Thonhauser, and
     *   S. de Gironcoli, J. Phys.: Condens. Matter 24, 424209 (2012).
     *

     Carrying out vdW-DF run using the following parameters:

     Nqs =      20    Nr_points =    1024   r_max =   100.000
     q_mesh =
               0.00001000     0.04494208     0.09755937     0.15916263
               0.23128650     0.31572767     0.41458969     0.53033537
               0.66584808     0.82450364     1.01025438     1.22772762
               1.48234092     1.78043706     2.12944203     2.53805004
               3.01644009     3.57652955     4.23227104     5.00000000

     Gradients computed in reciprocal space

     Adding external electric field

     Computed dipole along edir(3) :
        Dipole               -0.0033 Ry au,         -0.0084 Debye
        Dipole field         -0.0000 Ry au

        Potential amp.        0.0007 Ry
        Total length         45.8339 bohr

     Starting wfc are  161 randomized atomic wfcs

     Self-consistent Calculation

     iteration #  1     ecut=    36.75 Ry     beta=0.30
     Davidson diagonalization with overlap
     ethr =  1.00E-02,  avg # of iterations =  2.0

[...]

     total energy              =   -1728.82826678 Ry
     Harris-Foulkes estimate   =   -1731.39858182 Ry
     estimated scf accuracy    <       5.61729733 Ry

[...]

     End of self-consistent calculation

          k = 0.0000 0.0000 0.0000 ( 19447 PWs)   bands (ev):

   -66.2729 -66.2297 -66.2296 -66.1396 -66.0821 -66.0820 -66.0794 -66.0397
   -65.9875 -65.9598 -65.9597 -65.7493 -32.8947 -32.8915 -32.8866 -32.8866
   -32.8438 -32.8438 -32.7959 -32.7831 -32.7831 -32.7708 -32.6368 -32.5841
   -32.5840 -32.4241 -32.4227 -32.4226 -32.3923 -32.2676 -32.2676 -32.2620
   -32.2386 -32.2171 -32.2170 -32.1973 -32.1932 -32.1932 -32.1165 -32.1165
   -32.1157 -32.0539 -32.0539 -31.9939 -31.9890 -31.9890 -31.9371 -31.9371
    -8.3746  -5.2915  -3.7367  -2.6527  -2.3539  -1.9173  -1.9173  -1.8290
    -1.7288  -1.7288  -1.4734  -1.0327  -1.0327  -0.9408  -0.7974  -0.7974
    -0.6920   0.1768   0.1769   0.4044   1.3369   1.3369   1.5568   1.7289
     2.0317   2.0318   2.0361   2.1082   2.3576   2.3576   2.5119   2.5507
     2.5507   2.8367   2.8367   2.8899   2.9267   2.9267   3.0078   3.0078
     3.1236   3.2680

[...]

          k =-0.0837 0.0483 0.0000 ( 19532 PWs)   bands (ev):

[...]

     the Fermi energy is     2.1735 ev

!    total energy              =   -1730.96067391 Ry
     Harris-Foulkes estimate   =   -1730.96068150 Ry
     estimated scf accuracy    <       0.00000433 Ry

     The total energy is the sum of the following terms:

     one-electron contribution =  -11549.51212595 Ry
     hartree contribution      =    5759.66998625 Ry
     xc contribution           =    -526.95716849 Ry
     ewald contribution        =    4585.94309411 Ry
     electric field correction =       0.00001346 Ry
     smearing contrib. (-TS)   =      -0.10447329 Ry

     convergence has been achieved in  17 iterations

 BEEF-vdW xc energy contributions
           1 :   -463.807358806384
           2 :    428.026428621376
           3 :   -365.626471317531
           4 :    291.082225031366
           5 :   -218.841952901136
           6 :    158.917931865901
           7 :   -114.921679927826
           8 :    84.8962708269062
           9 :   -64.0313683982901
          10 :    47.6729630702574
          11 :   -33.2288599960489
          12 :    20.4052503409982
          13 :   -10.1611666458585
          14 :    3.30858064140489
          15 :   0.368439974769217
          16 :   -2.09545094593625
          17 :    3.39762143163261
          18 :   -5.25428091934771
          19 :    7.65520262464048
          20 :   -9.79225477384739
          21 :    10.7162779533967
          22 :   -10.0234213543888
          23 :    8.15238834737488
          24 :   -6.13698640001309
          25 :    5.00061090251324
          26 :   -5.18391099905693
          27 :    6.34639630903746
          28 :   -7.63202737518588
          29 :    8.20474000280893
          30 :   -7.71747962653808
          31 :   -41.5538724823855
          32 :   -30.8296859728015

     Forces acting on atoms (Ry/au):

     negative rho (up, down):  1.177E+00 0.000E+00
     atom    1 type  1   force =    -0.00134875   -0.00077738    0.00170720
     atom    2 type  1   force =     0.00134546   -0.00076626    0.00168520
     atom    3 type  1   force =     0.00000927    0.00154772    0.00167789
     atom    4 type  1   force =    -0.00000716   -0.00000188    0.00273307
     atom    5 type  1   force =     0.00000826    0.00376358   -0.00717839
     atom    6 type  1   force =    -0.00000630   -0.00001636    0.01125424
     atom    7 type  1   force =    -0.00326823   -0.00187750   -0.00717478
     atom    8 type  1   force =     0.00327617   -0.00187056   -0.00717237
     atom    9 type  1   force =    -0.00000111    0.00000482    0.13211583
     atom   10 type  1   force =    -0.00000774   -0.00031249   -0.00067254
     atom   11 type  1   force =    -0.00027629    0.00014838   -0.00066089
     atom   12 type  1   force =     0.00027614    0.00015746   -0.00067469
     atom   13 type  2   force =    -0.00000065   -0.00000018   -0.11807175
     atom   14 type  3   force =     0.00000091    0.00000066   -0.00956802

     Total force =     0.177451     Total SCF correction =     0.000860

     entering subroutine stress ...

     negative rho (up, down):  1.177E+00 0.000E+00
          total   stress  (Ry/bohr**3)                   (kbar)     P=  -34.71
  -0.00027777  -0.00000000   0.00000000        -40.86     -0.00      0.00
  -0.00000000  -0.00027777   0.00000000         -0.00    -40.86      0.00
   0.00000000   0.00000000  -0.00015240          0.00      0.00    -22.42

     BFGS Geometry Optimization

     number of scf cycles    =   1
     number of bfgs steps    =   0

     energy   new            =   -1730.9606739139 Ry

     new trust radius        =       0.1321158323 bohr
     new conv_thr            =       0.0000099958 Ry

ATOMIC_POSITIONS (crystal)
Ta1      0.166666667   0.166666667   0.401991699    0   0   0
Ta1      0.666666667   0.166666667   0.401991699    0   0   0
Ta1      0.166666667   0.666666667   0.401991699    0   0   0
Ta1      0.666666667   0.666666667   0.401991699    0   0   0
Ta1      0.833333333   0.333333333   0.500000000    0   0   0
Ta1      0.333333333   0.333333333   0.500000000    0   0   0
Ta1      0.833333333   0.833333333   0.500000000    0   0   0
Ta1      0.333333333   0.833333333   0.500000000    0   0   0
Ta1     -0.000000344   0.000000493   0.600818733
Ta1      0.500015301  -0.000031973   0.597993995
Ta1     -0.000032073   0.500015182   0.597994243
Ta1      0.500016413   0.500016111   0.597993949
C1      -0.000000048  -0.000000018   0.679553086
H1       0.000000047   0.000000068   0.726080317

     Writing output data file calc.save
     Check: negative starting charge=   -1.121532
     NEW-OLD atomic charge density approx. for the potential
     Check: negative starting charge=   -1.121614

[...]

     energy   old            =   -1730.9606739139 Ry
     energy   new            =   -1730.9779898481 Ry

     CASE: energy  _new < energy  _old

[...]

     Threshold (ethr) on eigenvalues was too large:
     Diagonalizing with lowered threshold

     Davidson diagonalization with overlap
     ethr =  3.68E-08,  avg # of iterations =  1.5

[...]

     Total force =     0.012281     Total SCF correction =     0.000529

[...]

     Total force =     0.005503     Total SCF correction =     0.000636
     SCF correction compared to forces is large: reduce conv_thr to get better values

[...]

     number of scf cycles    =  10
     number of bfgs steps    =   9

     energy   old            =   -1730.9846558059 Ry
     energy   new            =   -1730.9847045648 Ry

     CASE: energy  _new < energy  _old

     new trust radius        =       0.0042891147 bohr
     new conv_thr            =       0.0000001000 Ry

ATOMIC_POSITIONS (crystal)
Ta1      0.166666667   0.166666667   0.401991699    0   0   0
Ta1      0.666666667   0.166666667   0.401991699    0   0   0
Ta1      0.166666667   0.666666667   0.401991699    0   0   0
Ta1      0.666666667   0.666666667   0.401991699    0   0   0
Ta1      0.833333333   0.333333333   0.500000000    0   0   0
Ta1      0.333333333   0.333333333   0.500000000    0   0   0
Ta1      0.833333333   0.833333333   0.500000000    0   0   0
Ta1      0.333333333   0.833333333   0.500000000    0   0   0
Ta1     -0.000000242  -0.000000593   0.599721946
Ta1      0.500240904  -0.000481555   0.597503114
Ta1     -0.000482070   0.500241475   0.597503104
Ta1      0.500239976   0.500240574   0.597503153
C1      -0.000000080  -0.000000059   0.676795579
H1       0.000000021   0.000000000   0.720638560

     Writing output data file calc.save
     Check: negative starting charge=   -1.121494
     NEW-OLD atomic charge density approx. for the potential
     Check: negative starting charge=   -1.121477

[...]

     Self-consistent Calculation

[...]

     Threshold (ethr) on eigenvalues was too large:
     Diagonalizing with lowered threshold

     Davidson diagonalization with overlap
     ethr =  8.30E-09,  avg # of iterations =  4.3

[...]

     total energy              =   -1730.98471770 Ry
     Harris-Foulkes estimate   =   -1730.98471767 Ry
     estimated scf accuracy    <       0.00000082 Ry

     iteration #  6     ecut=    36.75 Ry     beta=0.30
     Davidson diagonalization with overlap
     ethr =  5.10E-10,  avg # of iterations =  3.0

[...]

     negative rho (up, down):  1.177E+00 0.000E+00

     Adding external electric field

     Computed dipole along edir(3) :
        Dipole                0.0809 Ry au,          0.2057 Debye
        Dipole field          0.0002 Ry au

        Potential amp.       -0.0180 Ry
        Total length         45.8339 bohr

     End of self-consistent calculation

[...]

          k = 0.0558-0.0645 0.0000 ( 19521 PWs)   bands (ev):

[...]

          k =-0.0837-0.0483 0.0000 ( 19532 PWs)   bands (ev):

   -66.2621 -66.2482 -66.2339 -66.1185 -66.1162 -66.0889 -66.0869 -66.0348
   -65.9969 -65.9809 -65.9710 -65.4783 -32.8213 -32.7986 -32.7838 -32.7812
   -32.7145 -32.6996 -32.6625 -32.6510 -32.6416 -32.6303 -32.6195 -32.5548
   -32.5096 -32.4850 -32.4792 -32.4437 -32.4413 -32.4323 -32.3519 -32.3515
   -32.3248 -32.3044 -32.2737 -32.2724 -32.2448 -32.2063 -32.1785 -32.1750
   -32.1677 -32.1583 -32.1497 -32.0624 -32.0440 -31.8853 -31.8602 -31.8024
    -8.2920  -3.5831  -3.4822  -2.5679  -2.0802  -1.6971  -1.1935  -1.1207
    -0.9836  -0.9128  -0.8242  -0.6979  -0.0770   0.0994   0.1866   0.2775
     0.3355   0.3647   0.3777   0.5458   0.7583   0.9479   0.9770   1.0072
     1.0775   1.1513   1.3927   1.4714   1.5688   1.5954   1.6439   1.7911
     1.8967   1.9954   2.0923   2.2449   2.4278   2.4327   2.5201   2.7823
     3.1390   3.3804

     the Fermi energy is     2.1653 ev

!    total energy              =   -1730.98471775 Ry
     Harris-Foulkes estimate   =   -1730.98471756 Ry
     estimated scf accuracy    <       0.00000008 Ry

     The total energy is the sum of the following terms:

     one-electron contribution =  -11576.72956585 Ry
     hartree contribution      =    5773.35547142 Ry
     xc contribution           =    -527.10526002 Ry
     ewald contribution        =    4599.59820072 Ry
     electric field correction =       0.00001587 Ry
     smearing contrib. (-TS)   =      -0.10357989 Ry

     convergence has been achieved in   6 iterations

 BEEF-vdW xc energy contributions
           1 :   -463.951400675906
           2 :    428.191707363606
           3 :   -365.814896672941
           4 :    291.270912272671
           5 :   -218.994565685239
           6 :    159.003859073657
           7 :   -114.931919881662
           8 :    84.8480989956540
           9 :   -63.9598362843204
          10 :    47.6140879631571
          11 :   -33.2036871605110
          12 :    20.4128259365981
          13 :   -10.1827052136598
          14 :    3.31882290365269
          15 :   0.389182139858690
          16 :   -2.15377875673244
          17 :    3.48596764220201
          18 :   -5.35535950145754
          19 :    7.74995386834632
          20 :   -9.86727534406418
          21 :    10.7670090286489
          22 :   -10.0529958572002
          23 :    8.16774117397176
          24 :   -6.14454396381188
          25 :    5.00377135431756
          26 :   -5.18306452567879
          27 :    6.34066258909615
          28 :   -7.62109121492904
          29 :    8.19009592818963
          30 :   -7.70306279276599
          31 :   -41.5631039383667
          32 :   -30.8428114342979

     Forces acting on atoms (Ry/au):

     negative rho (up, down):  1.177E+00 0.000E+00
     atom    1 type  1   force =    -0.00191937   -0.00110751    0.00149910
     atom    2 type  1   force =     0.00191932   -0.00110788    0.00149899
     atom    3 type  1   force =    -0.00000037    0.00221592    0.00149887
     atom    4 type  1   force =    -0.00000023    0.00000002    0.00291675
     atom    5 type  1   force =     0.00000097    0.00263097   -0.00701509
     atom    6 type  1   force =    -0.00000035    0.00000004    0.01052750
     atom    7 type  1   force =    -0.00227822   -0.00131629   -0.00701622
     atom    8 type  1   force =     0.00227861   -0.00131538   -0.00701557
     atom    9 type  1   force =    -0.00000011    0.00000166    0.00017200
     atom   10 type  1   force =    -0.00000043    0.00017651    0.00106813
     atom   11 type  1   force =     0.00015191   -0.00008936    0.00106856
     atom   12 type  1   force =    -0.00015190   -0.00008883    0.00106798
     atom   13 type  2   force =     0.00000020    0.00000009   -0.00010866
     atom   14 type  3   force =    -0.00000003    0.00000004   -0.00016235

     Total force =     0.001893     Total SCF correction =     0.000599
     SCF correction compared to forces is large: reduce conv_thr to get better values

     entering subroutine stress ...

     negative rho (up, down):  1.177E+00 0.000E+00
          total   stress  (Ry/bohr**3)                   (kbar)     P=  -29.25
  -0.00027190   0.00000000  -0.00000000        -40.00      0.00     -0.00
   0.00000000  -0.00027190   0.00000000          0.00    -40.00      0.00
  -0.00000000   0.00000000  -0.00005270         -0.00      0.00     -7.75

     bfgs converged in  11 scf cycles and  10 bfgs steps
     (criteria: energy <  1.0E+00, force <  1.9E-03)

     End of BFGS Geometry Optimization

     Final energy   =   -1730.9847177530 Ry
Begin final coordinates

ATOMIC_POSITIONS (crystal)
Ta1      0.166666667   0.166666667   0.401991699    0   0   0
Ta1      0.666666667   0.166666667   0.401991699    0   0   0
Ta1      0.166666667   0.666666667   0.401991699    0   0   0
Ta1      0.666666667   0.666666667   0.401991699    0   0   0
Ta1      0.833333333   0.333333333   0.500000000    0   0   0
Ta1      0.333333333   0.333333333   0.500000000    0   0   0
Ta1      0.833333333   0.833333333   0.500000000    0   0   0
Ta1      0.333333333   0.833333333   0.500000000    0   0   0
Ta1     -0.000000242  -0.000000593   0.599721946
Ta1      0.500240904  -0.000481555   0.597503114
Ta1     -0.000482070   0.500241475   0.597503104
Ta1      0.500239976   0.500240574   0.597503153
C1      -0.000000080  -0.000000059   0.676795579
H1       0.000000021   0.000000000   0.720638560
End final coordinates

     Writing output data file calc.save

     General routines

     Parallel routines

   This run was terminated on:   6:18: 9  23Apr2018

   JOB DONE.