     Program PWSCF v.5.1rc2 (svn rev. 11289) starts on 30Apr2018 at 16:51:49

     Current dimensions of program PWSCF are:
     Max number of different atomic species (ntypx) = 10
     Max number of k-points (npk) =  40000
     Max angular momentum in pseudopotentials (lmaxx) =  3
     Presently stress not available with electric field

     IMPORTANT: XC functional enforced from input :
     Exchange-correlation      = BEEF-VDW ( 1  4 27 13 2)
     Any further DFT definition will be discarded
     Please, verify this is what you really want

     Subspace diagonalization in iterative solution of the eigenvalue problem:
     a serial algorithm will be used

     bravais-lattice index     =            0
     lattice parameter (alat)  =       1.8897  a.u.
     unit-cell volume          =    4650.5773 (a.u.)^3
     number of atoms/cell      =           13
     number of atomic types    =            2
     number of electrons       =        42.00
     number of Kohn-Sham states=           31
     kinetic-energy cutoff     =      36.7493  Ry
     charge density cutoff     =     367.4932  Ry
     convergence threshold     =      1.0E-05
     mixing beta               =       0.3000
     number of iterations used =           10  plain     mixing
     Exchange-correlation      = BEEF-VDW ( 1  4 27 13 2)
     nstep                     =           50

     celldm(1)=   1.889726  celldm(2)=   0.000000  celldm(3)=   0.000000
     celldm(4)=   0.000000  celldm(5)=   0.000000  celldm(6)=   0.000000

     crystal axes: (cart. coord. in units of alat)
               a(1) = (   5.682886   0.000000   0.000000 )
               a(2) = (   2.841443   4.921524   0.000000 )
               a(3) = (   0.000000   0.000000  24.640057 )

     reciprocal axes: (cart. coord. in units 2 pi/alat)
               b(1) = (  0.175967 -0.101595  0.000000 )
               b(2) = (  0.000000  0.203189  0.000000 )
               b(3) = (  0.000000  0.000000  0.040584 )

     PseudoPot. # 1 for Al read from file:
     /u/if/mamunm/psp/gbrv1.5pbe/Al.UPF
     MD5 check sum: 0a6289f5291fc8f409219462bc851e1f
     Pseudo is Ultrasoft + core correction, Zval =  3.0
     Generated by new atomic code, or converted to UPF format
     Using radial grid of  893 points,  3 beta functions with:
                l(1) =   0
                l(2) =   1
                l(3) =   2
     Q(r) pseudized with  8 coefficients,  rinner =    0.900   0.900   0.900
                                                       0.900   0.900

     PseudoPot. # 2 for O  read from file:
     /u/if/mamunm/psp/gbrv1.5pbe/O.UPF
     MD5 check sum: 734c27235a0248c51dbae37a1fbe46ec
     Pseudo is Ultrasoft + core correction, Zval =  6.0
     Generated by new atomic code, or converted to UPF format
     Using radial grid of  737 points,  5 beta functions with:
                l(1) =   0
                l(2) =   0
                l(3) =   1
                l(4) =   1
                l(5) =   2
     Q(r) pseudized with  8 coefficients,  rinner =    0.900   0.900   0.900
                                                       0.900   0.900

     vdW kernel table read from file vdW_kernel_table
     MD5 check sum: 095c7af220d748ca6e76c0b4c6cfb241

     atomic species   valence    mass     pseudopotential
        Al1            3.00    26.98154     Al( 1.00)
        O1             6.00    15.99900     O ( 1.00)

     No symmetry found

   Cartesian axes

     site n.     atom                  positions (alat units)
         1           Al1 tau(   1) = (   1.4207216   0.8202540  10.0000000  )
         2           Al1 tau(   2) = (   4.2621647   0.8202540  10.0000000  )
         3           Al1 tau(   3) = (   2.8414431   3.2810159  10.0000000  )
         4           Al1 tau(   4) = (   5.6828862   3.2810159  10.0000000  )
         5           Al1 tau(   5) = (   5.6828862   1.6405079  12.3200286  )
         6           Al1 tau(   6) = (   2.8414431   1.6405079  12.3200286  )
         7           Al1 tau(   7) = (   7.1036078   4.1012699  12.3200286  )
         8           Al1 tau(   8) = (   4.2621647   4.1012699  12.3200286  )
         9           Al1 tau(   9) = (   0.0000000   0.0000000  14.6400572  )
        10           Al1 tau(  10) = (   2.8414431   0.0000000  14.6400572  )
        11           Al1 tau(  11) = (   1.4207216   2.4607619  14.6400572  )
        12           Al1 tau(  12) = (   4.2621647   2.4607619  14.6400572  )
        13           O1  tau(  13) = (   1.4207216   0.8202540  15.8555572  )

     number of k points=    20  Fermi-Dirac smearing, width (Ry)=  0.0110
                       cart. coord. in units 2pi/alat
        k(    1) = (   0.0000000   0.0000000   0.0000000), wk =   0.0555556
        k(    2) = (   0.0000000   0.0338648   0.0000000), wk =   0.1111111
        k(    3) = (   0.0000000   0.0677297   0.0000000), wk =   0.1111111
        k(    4) = (   0.0000000  -0.1015945   0.0000000), wk =   0.0555556
        k(    5) = (   0.0293278  -0.0169324   0.0000000), wk =   0.1111111
        k(    6) = (   0.0293278   0.0169324   0.0000000), wk =   0.1111111
        k(    7) = (   0.0293278   0.0507973   0.0000000), wk =   0.1111111
        k(    8) = (   0.0293278  -0.1185270   0.0000000), wk =   0.1111111
        k(    9) = (   0.0293278  -0.0846621   0.0000000), wk =   0.1111111
        k(   10) = (   0.0293278  -0.0507973   0.0000000), wk =   0.1111111
        k(   11) = (   0.0586556  -0.0338648   0.0000000), wk =   0.1111111
        k(   12) = (   0.0586556   0.0000000   0.0000000), wk =   0.1111111
        k(   13) = (   0.0586556   0.0338648   0.0000000), wk =   0.1111111
        k(   14) = (   0.0586556  -0.1354594   0.0000000), wk =   0.1111111
        k(   15) = (   0.0586556  -0.1015945   0.0000000), wk =   0.1111111
        k(   16) = (   0.0586556  -0.0677297   0.0000000), wk =   0.1111111
        k(   17) = (  -0.0879835   0.0507973   0.0000000), wk =   0.0555556
        k(   18) = (  -0.0879835   0.0846621   0.0000000), wk =   0.1111111
        k(   19) = (  -0.0879835   0.1185270   0.0000000), wk =   0.1111111
        k(   20) = (  -0.0879835  -0.0507973   0.0000000), wk =   0.0555556

     Largest allocated arrays     est. size (Mb)     dimensions
     Largest temporary arrays     est. size (Mb)     dimensions

     Initial potential from superposition of free atoms
     Check: negative starting charge=   -0.000312

     starting charge   41.97041, renormalised to   42.00000

     negative rho (up, down):  3.121E-04 0.000E+00

     *
     * You are using vdW-DF for exchange-correlation in this calculation.
     * Please cite the following three references that made this development
     * possible:
     *
     *   M. Dion, H. Rydberg, E. Schroder, D. C. Langreth, and
     *   B. I. Lundqvist, Phys. Rev. Lett. 92, 246401 (2004).
     *
     *   T. Thonhauser, V. R. Cooper, S. Li, A. Puzder, P. Hyldgaard, and
     *   D. C. Langreth, Phys. Rev. B 76, 125112 (2007).
     *
     *   G. Roman-Perez and J. M. Soler, Phys. Rev. Lett. 103, 096102 (2009).
     *
     *
     * If you are using vdW-DF2, please also cite:
     *
     *   K. Lee, E. D. Murray, L. Kong, B. I. Lundqvist, and
     *   D. C. Langreth, Phys. Rev. B 82, 081101(R) (2010).
     *
     *
     * If you are calculating the stress with vdW-DF, please also cite:
     *
     *   R. Sabatini, E. Kucukbenli, B. Kolb, T. Thonhauser, and
     *   S. de Gironcoli, J. Phys.: Condens. Matter 24, 424209 (2012).
     *

     Carrying out vdW-DF run using the following parameters:

     Nqs =      20    Nr_points =    1024   r_max =   100.000
     q_mesh =
               0.00001000     0.04494208     0.09755937     0.15916263
               0.23128650     0.31572767     0.41458969     0.53033537
               0.66584808     0.82450364     1.01025438     1.22772762
               1.48234092     1.78043706     2.12944203     2.53805004
               3.01644009     3.57652955     4.23227104     5.00000000

     Gradients computed in reciprocal space

     Adding external electric field

     Computed dipole along edir(3) :
        Dipole               -0.0282 Ry au,         -0.0718 Debye
        Dipole field         -0.0001 Ry au

        Potential amp.        0.0069 Ry
        Total length         45.3989 bohr

     Starting wfc are   52 randomized atomic wfcs

     Self-consistent Calculation

     iteration #  1     ecut=    36.75 Ry     beta=0.30
     Davidson diagonalization with overlap
     ethr =  1.00E-02,  avg # of iterations =  3.0

[...]

     total energy              =    -114.75240077 Ry
     Harris-Foulkes estimate   =    -115.34861078 Ry
     estimated scf accuracy    <       1.38369210 Ry

[...]

     End of self-consistent calculation

          k = 0.0000 0.0000 0.0000 ( 17579 PWs)   bands (ev):

   -19.4361 -11.5369  -9.7369  -6.9786  -6.2868  -6.2868  -5.9223  -5.6406
    -5.6406  -5.5973  -5.2078  -5.2078  -4.9148  -4.0857  -3.9127  -3.9127
    -3.8420  -3.4214  -3.4214  -2.5353  -1.2833  -1.2833  -1.1424  -0.2637
    -0.2223  -0.2223   0.2211   1.7046   1.7046   1.7284   2.0171

[...]

          k =-0.0880 0.0508 0.0000 ( 17464 PWs)   bands (ev):

[...]

     the Fermi energy is    -0.9139 ev

!    total energy              =    -115.08643251 Ry
     Harris-Foulkes estimate   =    -115.08643011 Ry
     estimated scf accuracy    <       0.00000966 Ry

     The total energy is the sum of the following terms:

     one-electron contribution =    -807.77616719 Ry
     hartree contribution      =     413.06255917 Ry
     xc contribution           =     -60.74168281 Ry
     ewald contribution        =     340.39522024 Ry
     electric field correction =       0.00019185 Ry
     smearing contrib. (-TS)   =      -0.02655376 Ry

     convergence has been achieved in   9 iterations

 BEEF-vdW xc energy contributions
           1 :   -50.0406205305009
           2 :    42.9531566505210
           3 :   -32.0601596296712
           4 :    21.6288871036536
           5 :   -14.4020971809388
           6 :    10.5991707821033
           7 :   -8.71668056460882
           8 :    7.16670164671801
           9 :   -5.41000710822352
          10 :    3.89172507734786
          11 :   -3.17319200962807
          12 :    3.20421208461545
          13 :   -3.35223612247613
          14 :    3.01450978627228
          15 :   -2.14571095596112
          16 :    1.21039329563409
          17 :  -0.680700460433030
          18 :   0.610323908834530
          19 :  -0.665713576582846
          20 :   0.507894457304516
          21 :  -0.112941744761741
          22 :  -0.260575460843626
          23 :   0.372445740456286
          24 :  -0.245309477220353
          25 :   0.122632030668598
          26 :  -0.210424977588573
          27 :   0.473339996086494
          28 :  -0.683747983168104
          29 :   0.657752656907029
          30 :  -0.432695609861682
          31 :   -7.28764205155186
          32 :   -5.26587525672731

     Forces acting on atoms (Ry/au):

     negative rho (up, down):  5.333E-04 0.000E+00
     atom    1 type  1   force =    -0.00000016    0.00000040    0.00152331
     atom    2 type  1   force =    -0.00000014    0.00022292   -0.00036881
     atom    3 type  1   force =     0.00019309   -0.00011184   -0.00036858
     atom    4 type  1   force =    -0.00019317   -0.00011184   -0.00036877
     atom    5 type  1   force =    -0.00083747    0.00048385    0.00626114
     atom    6 type  1   force =     0.00083741    0.00048325    0.00626105
     atom    7 type  1   force =    -0.00000032   -0.00000013   -0.00512238
     atom    8 type  1   force =     0.00000016   -0.00096731    0.00626089
     atom    9 type  1   force =     0.01553178    0.00896720    0.04010888
     atom   10 type  1   force =    -0.01553206    0.00896726    0.04010956
     atom   11 type  1   force =     0.00000011   -0.01793496    0.04010941
     atom   12 type  1   force =     0.00000005   -0.00000026   -0.01565484
     atom   13 type  2   force =     0.00000071    0.00000147   -0.11875086

     Total force =     0.141909     Total SCF correction =     0.001948

     entering subroutine stress ...

     negative rho (up, down):  5.333E-04 0.000E+00
          total   stress  (Ry/bohr**3)                   (kbar)     P=  -12.51
  -0.00009044   0.00000000   0.00000000        -13.30      0.00      0.00
   0.00000000  -0.00009043   0.00000000          0.00    -13.30      0.00
   0.00000000   0.00000000  -0.00007420          0.00      0.00    -10.92

     BFGS Geometry Optimization

     number of scf cycles    =   1
     number of bfgs steps    =   0

     energy   new            =    -115.0864325064 Ry

     new trust radius        =       0.1187508590 bohr
     new conv_thr            =       0.0000099958 Ry

ATOMIC_POSITIONS (crystal)
Al1      0.166666667   0.166666667   0.405843214    0   0   0
Al1      0.666666667   0.166666667   0.405843214    0   0   0
Al1      0.166666667   0.666666667   0.405843214    0   0   0
Al1      0.666666667   0.666666667   0.405843214    0   0   0
Al1      0.833333333   0.333333333   0.500000000    0   0   0
Al1      0.333333333   0.333333333   0.500000000    0   0   0
Al1      0.833333333   0.833333333   0.500000000    0   0   0
Al1      0.333333333   0.833333333   0.500000000    0   0   0
Al1      0.000964194   0.000964181   0.595018176
Al1      0.498071596   0.000964188   0.595018191
Al1      0.000964221   0.498071578   0.595018188
Al1      0.500000019   0.499999972   0.593820578
O1       0.166666654   0.166666824   0.640936700

     Writing output data file calc.save
     Check: negative starting charge=   -0.000312
     NEW-OLD atomic charge density approx. for the potential
     Check: negative starting charge=   -0.000305

[...]

     energy   old            =    -115.0864325064 Ry
     energy   new            =    -115.1042663408 Ry

     CASE: energy  _new < energy  _old

[...]

     Threshold (ethr) on eigenvalues was too large:
     Diagonalizing with lowered threshold

     Davidson diagonalization with overlap
     ethr =  5.87E-08,  avg # of iterations =  1.7

[...]

     number of scf cycles    =  14
     number of bfgs steps    =  13

     energy   old            =    -115.1350544361 Ry
     energy   new            =    -115.1350777548 Ry

     CASE: energy  _new < energy  _old

     new trust radius        =       0.0047102990 bohr
     new conv_thr            =       0.0000001000 Ry

ATOMIC_POSITIONS (crystal)
Al1      0.166666667   0.166666667   0.405843214    0   0   0
Al1      0.666666667   0.166666667   0.405843214    0   0   0
Al1      0.166666667   0.666666667   0.405843214    0   0   0
Al1      0.666666667   0.666666667   0.405843214    0   0   0
Al1      0.833333333   0.333333333   0.500000000    0   0   0
Al1      0.333333333   0.333333333   0.500000000    0   0   0
Al1      0.833333333   0.833333333   0.500000000    0   0   0
Al1      0.333333333   0.833333333   0.500000000    0   0   0
Al1     -0.004910770  -0.004910736   0.595902110
Al1      0.509821547  -0.004910742   0.595902111
Al1     -0.004910748   0.509821550   0.595902111
Al1      0.500000003   0.500000024   0.588846719
O1       0.166666677   0.166666682   0.627820724

     Writing output data file calc.save
     Check: negative starting charge=   -0.000302
     NEW-OLD atomic charge density approx. for the potential
     Check: negative starting charge=   -0.000302

[...]

     Self-consistent Calculation

[...]

     Threshold (ethr) on eigenvalues was too large:
     Diagonalizing with lowered threshold

     Davidson diagonalization with overlap
     ethr =  6.22E-09,  avg # of iterations =  2.0

[...]

     total energy              =    -115.13508777 Ry
     Harris-Foulkes estimate   =    -115.13508782 Ry
     estimated scf accuracy    <       0.00000025 Ry

     iteration #  5     ecut=    36.75 Ry     beta=0.30
     Davidson diagonalization with overlap
     ethr =  6.00E-10,  avg # of iterations =  2.0

[...]

     negative rho (up, down):  5.022E-04 0.000E+00

     Adding external electric field

     Computed dipole along edir(3) :
        Dipole               -0.0283 Ry au,         -0.0718 Debye
        Dipole field         -0.0001 Ry au

        Potential amp.        0.0069 Ry
        Total length         45.3989 bohr

     End of self-consistent calculation

[...]

          k = 0.0587-0.0677 0.0000 ( 17495 PWs)   bands (ev):

[...]

          k =-0.0880-0.0508 0.0000 ( 17464 PWs)   bands (ev):

   -20.7472  -9.8990  -9.6599  -8.5067  -7.8414  -7.7418  -6.8655  -6.7347
    -6.4255  -5.6726  -5.2596  -4.7896  -4.5091  -3.8288  -2.4658  -2.1309
    -2.0695  -1.5642  -1.0472  -0.8643  -0.8241  -0.2738   0.2745   0.6365
     0.8753   1.0434   1.0732   1.4308   1.9317   1.9754   2.2559

     the Fermi energy is    -0.6124 ev

!    total energy              =    -115.13508780 Ry
     Harris-Foulkes estimate   =    -115.13508778 Ry
     estimated scf accuracy    <       0.00000003 Ry

     The total energy is the sum of the following terms:

     one-electron contribution =    -833.53174888 Ry
     hartree contribution      =     426.12521101 Ry
     xc contribution           =     -60.95198477 Ry
     ewald contribution        =     353.25058951 Ry
     electric field correction =       0.00000216 Ry
     smearing contrib. (-TS)   =      -0.02715682 Ry

     convergence has been achieved in   5 iterations

 BEEF-vdW xc energy contributions
           1 :   -50.2456195667152
           2 :    43.1780794743892
           3 :   -32.2696820644768
           4 :    21.7525304787284
           5 :   -14.3919053971056
           6 :    10.4633425449350
           7 :   -8.51173374007543
           8 :    6.96065306898652
           9 :   -5.24312120668411
          10 :    3.76095238181286
          11 :   -3.04778942517351
          12 :    3.05817770818251
          13 :   -3.18809289942746
          14 :    2.85886729423006
          15 :   -2.02250590993793
          16 :    1.12098401975217
          17 :  -0.608542498924187
          18 :   0.538752672051949
          19 :  -0.588716994739357
          20 :   0.426708412085887
          21 :  -2.744422828298809E-002
          22 :  -0.352369801454557
          23 :   0.465565876176356
          24 :  -0.321578772174760
          25 :   0.157739382151391
          26 :  -0.192369930085974
          27 :   0.417369175211725
          28 :  -0.626773555703963
          29 :   0.633523999759120
          30 :  -0.450134645051563
          31 :   -7.30000384605457
          32 :   -5.27680487988796

     Forces acting on atoms (Ry/au):

     negative rho (up, down):  5.022E-04 0.000E+00
     atom    1 type  1   force =    -0.00000000    0.00000000    0.00071728
     atom    2 type  1   force =     0.00000000    0.00061664    0.00033106
     atom    3 type  1   force =     0.00053403   -0.00030832    0.00033106
     atom    4 type  1   force =    -0.00053403   -0.00030832    0.00033107
     atom    5 type  1   force =     0.00387040   -0.00223457   -0.00005603
     atom    6 type  1   force =    -0.00387039   -0.00223457   -0.00005603
     atom    7 type  1   force =     0.00000000   -0.00000000   -0.00137635
     atom    8 type  1   force =     0.00000000    0.00446915   -0.00005603
     atom    9 type  1   force =    -0.00074433   -0.00042975   -0.00079289
     atom   10 type  1   force =     0.00074433   -0.00042975   -0.00079290
     atom   11 type  1   force =    -0.00000001    0.00085949   -0.00079290
     atom   12 type  1   force =     0.00000000    0.00000000    0.00174070
     atom   13 type  2   force =    -0.00000000   -0.00000000    0.00047197

     Total force =     0.002712     Total SCF correction =     0.000157

     entering subroutine stress ...

     negative rho (up, down):  5.022E-04 0.000E+00
          total   stress  (Ry/bohr**3)                   (kbar)     P=   -5.52
  -0.00005488   0.00000000  -0.00000000         -8.07      0.00     -0.00
   0.00000000  -0.00005488  -0.00000000          0.00     -8.07     -0.00
  -0.00000000  -0.00000000  -0.00000281         -0.00     -0.00     -0.41

     bfgs converged in  15 scf cycles and  14 bfgs steps
     (criteria: energy <  1.0E+00, force <  1.9E-03)

     End of BFGS Geometry Optimization

     Final energy   =    -115.1350878009 Ry
Begin final coordinates

ATOMIC_POSITIONS (crystal)
Al1      0.166666667   0.166666667   0.405843214    0   0   0
Al1      0.666666667   0.166666667   0.405843214    0   0   0
Al1      0.166666667   0.666666667   0.405843214    0   0   0
Al1      0.666666667   0.666666667   0.405843214    0   0   0
Al1      0.833333333   0.333333333   0.500000000    0   0   0
Al1      0.333333333   0.333333333   0.500000000    0   0   0
Al1      0.833333333   0.833333333   0.500000000    0   0   0
Al1      0.333333333   0.833333333   0.500000000    0   0   0
Al1     -0.004910770  -0.004910736   0.595902110
Al1      0.509821547  -0.004910742   0.595902111
Al1     -0.004910748   0.509821550   0.595902111
Al1      0.500000003   0.500000024   0.588846719
O1       0.166666677   0.166666682   0.627820724
End final coordinates

     Writing output data file calc.save

     General routines

     Parallel routines

   This run was terminated on:  17:25:33  30Apr2018

   JOB DONE.
Job  /afs/slac/g/suncat/bin/suncat-tsmpirun -x LD_LIBRARY_PATH -wdir /scratch/qe534515_AHEwJ pw.x -npool 4 -in pw.inp

TID   HOST_NAME   COMMAND_LINE            STATUS            TERMINATION_TIME
00000 suncat0170 pw.x -npool 4 -i  Done                     04/30/2018 17:25:33
00001 suncat0170 pw.x -npool 4 -i  Done                     04/30/2018 17:25:33
00002 suncat0170 pw.x -npool 4 -i  Done                     04/30/2018 17:25:33
00003 suncat0170 pw.x -npool 4 -i  Done                     04/30/2018 17:25:33
00004 suncat0170 pw.x -npool 4 -i  Done                     04/30/2018 17:25:33
00005 suncat0170 pw.x -npool 4 -i  Done                     04/30/2018 17:25:33
00006 suncat0170 pw.x -npool 4 -i  Done                     04/30/2018 17:25:33
00007 suncat0170 pw.x -npool 4 -i  Done                     04/30/2018 17:25:33
00008 suncat0155 pw.x -npool 4 -i  Done                     04/30/2018 17:25:33
00009 suncat0155 pw.x -npool 4 -i  Done                     04/30/2018 17:25:33
00010 suncat0155 pw.x -npool 4 -i  Done                     04/30/2018 17:25:33
00011 suncat0155 pw.x -npool 4 -i  Done                     04/30/2018 17:25:33
00012 suncat0155 pw.x -npool 4 -i  Done                     04/30/2018 17:25:33
00013 suncat0155 pw.x -npool 4 -i  Done                     04/30/2018 17:25:33
00014 suncat0155 pw.x -npool 4 -i  Done                     04/30/2018 17:25:33
00015 suncat0155 pw.x -npool 4 -i  Done                     04/30/2018 17:25:33
00016 suncat0129 pw.x -npool 4 -i  Done                     04/30/2018 17:25:33
00017 suncat0129 pw.x -npool 4 -i  Done                     04/30/2018 17:25:33
00018 suncat0129 pw.x -npool 4 -i  Done                     04/30/2018 17:25:33
00019 suncat0129 pw.x -npool 4 -i  Done                     04/30/2018 17:25:33
00020 suncat0129 pw.x -npool 4 -i  Done                     04/30/2018 17:25:33
00021 suncat0129 pw.x -npool 4 -i  Done                     04/30/2018 17:25:33
00022 suncat0129 pw.x -npool 4 -i  Done                     04/30/2018 17:25:33
00023 suncat0129 pw.x -npool 4 -i  Done                     04/30/2018 17:25:33
00024 suncat0246 pw.x -npool 4 -i  Done                     04/30/2018 17:25:33
00025 suncat0246 pw.x -npool 4 -i  Done                     04/30/2018 17:25:33
00026 suncat0246 pw.x -npool 4 -i  Done                     04/30/2018 17:25:33
00027 suncat0246 pw.x -npool 4 -i  Done                     04/30/2018 17:25:33
00028 suncat0246 pw.x -npool 4 -i  Done                     04/30/2018 17:25:33
00029 suncat0246 pw.x -npool 4 -i  Done                     04/30/2018 17:25:33
00030 suncat0246 pw.x -npool 4 -i  Done                     04/30/2018 17:25:33
00031 suncat0246 pw.x -npool 4 -i  Done                     04/30/2018 17:25:33