     Program PWSCF v.5.1rc2 (svn rev. ) starts on 21Feb2018 at 12: 3:56

     Current dimensions of program PWSCF are:
     Max number of different atomic species (ntypx) = 10
     Max number of k-points (npk) =  40000
     Max angular momentum in pseudopotentials (lmaxx) =  3
     Presently stress not available with electric field

     IMPORTANT: XC functional enforced from input :
     Exchange-correlation      = BEEF-VDW ( 1  4 27 13 2)
     Any further DFT definition will be discarded
     Please, verify this is what you really want

     Subspace diagonalization in iterative solution of the eigenvalue problem:
     a serial algorithm will be used

     bravais-lattice index     =            0
     lattice parameter (alat)  =       1.8897  a.u.
     unit-cell volume          =    5739.2980 (a.u.)^3
     number of atoms/cell      =           13
     number of atomic types    =            2
     number of electrons       =       150.00
     number of Kohn-Sham states=           85
     kinetic-energy cutoff     =      36.7493  Ry
     charge density cutoff     =     367.4932  Ry
     convergence threshold     =      1.0E-05
     mixing beta               =       0.3000
     number of iterations used =           10  plain     mixing
     Exchange-correlation      = BEEF-VDW ( 1  4 27 13 2)
     nstep                     =           50

     celldm(1)=   1.889726  celldm(2)=   0.000000  celldm(3)=   0.000000
     celldm(4)=   0.000000  celldm(5)=   0.000000  celldm(6)=   0.000000

     crystal axes: (cart. coord. in units of alat)
               a(1) = (   6.254208   0.000000   0.000000 )
               a(2) = (   3.127104   5.416303   0.000000 )
               a(3) = (   0.000000   0.000000  25.106540 )

     reciprocal axes: (cart. coord. in units 2 pi/alat)
               b(1) = (  0.159892 -0.092314  0.000000 )
               b(2) = (  0.000000  0.184628  0.000000 )
               b(3) = (  0.000000  0.000000  0.039830 )

     PseudoPot. # 1 for Cd read from file:
     /home/mamunm/src/pseudo/gbrv1.5pbe/Cd.UPF
     MD5 check sum: 17164a7926edb8e0dc231208abae86a6
     Pseudo is Ultrasoft + core correction, Zval = 12.0
     Generated by new atomic code, or converted to UPF format
     Using radial grid of  889 points,  6 beta functions with:
                l(1) =   0
                l(2) =   0
                l(3) =   1
                l(4) =   1
                l(5) =   2
                l(6) =   2
     Q(r) pseudized with  6 coefficients,  rinner =    1.000   1.000   1.000
                                                       1.000   1.000

     PseudoPot. # 2 for O  read from file:
     /home/mamunm/src/pseudo/gbrv1.5pbe/O.UPF
     MD5 check sum: 734c27235a0248c51dbae37a1fbe46ec
     Pseudo is Ultrasoft + core correction, Zval =  6.0
     Generated by new atomic code, or converted to UPF format
     Using radial grid of  737 points,  5 beta functions with:
                l(1) =   0
                l(2) =   0
                l(3) =   1
                l(4) =   1
                l(5) =   2
     Q(r) pseudized with  8 coefficients,  rinner =    0.900   0.900   0.900
                                                       0.900   0.900

     vdW kernel table read from file vdW_kernel_table
     MD5 check sum: 095c7af220d748ca6e76c0b4c6cfb241

     atomic species   valence    mass     pseudopotential
        Cd1           12.00   112.41400     Cd( 1.00)
        O1             6.00    15.99900     O ( 1.00)

     No symmetry found

   Cartesian axes

     site n.     atom                  positions (alat units)
         1           Cd1 tau(   1) = (   1.5635521   0.9027172  10.0000000  )
         2           Cd1 tau(   2) = (   4.6906562   0.9027172  10.0000000  )
         3           Cd1 tau(   3) = (   3.1271041   3.6108688  10.0000000  )
         4           Cd1 tau(   4) = (   6.2542083   3.6108688  10.0000000  )
         5           Cd1 tau(   5) = (   6.2542083   1.8054344  12.5532698  )
         6           Cd1 tau(   6) = (   3.1271041   1.8054344  12.5532698  )
         7           Cd1 tau(   7) = (   7.8177603   4.5135860  12.5532698  )
         8           Cd1 tau(   8) = (   4.6906562   4.5135860  12.5532698  )
         9           Cd1 tau(   9) = (   0.0000000   0.0000000  15.1065397  )
        10           Cd1 tau(  10) = (   3.1271041   0.0000000  15.1065397  )
        11           Cd1 tau(  11) = (   1.5635521   2.7081516  15.1065397  )
        12           Cd1 tau(  12) = (   4.6906562   2.7081516  15.1065397  )
        13           O1  tau(  13) = (   3.1271041   1.8054344  16.4715397  )

     number of k points=    20  Fermi-Dirac smearing, width (Ry)=  0.0110
                       cart. coord. in units 2pi/alat
        k(    1) = (   0.0000000   0.0000000   0.0000000), wk =   0.0555556
        k(    2) = (   0.0000000   0.0307713   0.0000000), wk =   0.1111111
        k(    3) = (   0.0000000   0.0615426   0.0000000), wk =   0.1111111
        k(    4) = (   0.0000000  -0.0923139   0.0000000), wk =   0.0555556
        k(    5) = (   0.0266487  -0.0153856   0.0000000), wk =   0.1111111
        k(    6) = (   0.0266487   0.0153856   0.0000000), wk =   0.1111111
        k(    7) = (   0.0266487   0.0461569   0.0000000), wk =   0.1111111
        k(    8) = (   0.0266487  -0.1076995   0.0000000), wk =   0.1111111
        k(    9) = (   0.0266487  -0.0769282   0.0000000), wk =   0.1111111
        k(   10) = (   0.0266487  -0.0461569   0.0000000), wk =   0.1111111
        k(   11) = (   0.0532974  -0.0307713   0.0000000), wk =   0.1111111
        k(   12) = (   0.0532974   0.0000000   0.0000000), wk =   0.1111111
        k(   13) = (   0.0532974   0.0307713   0.0000000), wk =   0.1111111
        k(   14) = (   0.0532974  -0.1230852   0.0000000), wk =   0.1111111
        k(   15) = (   0.0532974  -0.0923139   0.0000000), wk =   0.1111111
        k(   16) = (   0.0532974  -0.0615426   0.0000000), wk =   0.1111111
        k(   17) = (  -0.0799462   0.0461569   0.0000000), wk =   0.0555556
        k(   18) = (  -0.0799462   0.0769282   0.0000000), wk =   0.1111111
        k(   19) = (  -0.0799462   0.1076995   0.0000000), wk =   0.1111111
        k(   20) = (  -0.0799462  -0.0461569   0.0000000), wk =   0.0555556

     Largest allocated arrays     est. size (Mb)     dimensions
     Largest temporary arrays     est. size (Mb)     dimensions

     Initial potential from superposition of free atoms
     Check: negative starting charge=   -0.258045

     starting charge  143.99950, renormalised to  150.00000

     negative rho (up, down):  2.688E-01 0.000E+00

     *
     * You are using vdW-DF for exchange-correlation in this calculation.
     * Please cite the following three references that made this development
     * possible:
     *
     *   M. Dion, H. Rydberg, E. Schroder, D. C. Langreth, and
     *   B. I. Lundqvist, Phys. Rev. Lett. 92, 246401 (2004).
     *
     *   T. Thonhauser, V. R. Cooper, S. Li, A. Puzder, P. Hyldgaard, and
     *   D. C. Langreth, Phys. Rev. B 76, 125112 (2007).
     *
     *   G. Roman-Perez and J. M. Soler, Phys. Rev. Lett. 103, 096102 (2009).
     *
     *
     * If you are using vdW-DF2, please also cite:
     *
     *   K. Lee, E. D. Murray, L. Kong, B. I. Lundqvist, and
     *   D. C. Langreth, Phys. Rev. B 82, 081101(R) (2010).
     *
     *
     * If you are calculating the stress with vdW-DF, please also cite:
     *
     *   R. Sabatini, E. Kucukbenli, B. Kolb, T. Thonhauser, and
     *   S. de Gironcoli, J. Phys.: Condens. Matter 24, 424209 (2012).
     *

     Carrying out vdW-DF run using the following parameters:

     Nqs =      20    Nr_points =    1024   r_max =   100.000
     q_mesh =
               0.00001000     0.04494208     0.09755937     0.15916263
               0.23128650     0.31572767     0.41458969     0.53033537
               0.66584808     0.82450364     1.01025438     1.22772762
               1.48234092     1.78043706     2.12944203     2.53805004
               3.01644009     3.57652955     4.23227104     5.00000000

     Gradients computed in reciprocal space

     Adding external electric field

     Computed dipole along edir(3) :
        Dipole               -1.8513 Ry au,         -4.7054 Debye
        Dipole field         -0.0041 Ry au

        Potential amp.        0.3750 Ry
        Total length         46.2584 bohr

     Starting wfc are  112 randomized atomic wfcs

     Self-consistent Calculation

     iteration #  1     ecut=    36.75 Ry     beta=0.30
     Davidson diagonalization with overlap
     ethr =  1.00E-02,  avg # of iterations =  5.8

[...]

     total energy              =   -1421.63735080 Ry
     Harris-Foulkes estimate   =   -1426.07657499 Ry
     estimated scf accuracy    <       9.24026528 Ry

[...]

     End of self-consistent calculation

          k = 0.0000 0.0000 0.0000 ( 21643 PWs)   bands (ev):

   -16.7194  -9.7556  -9.7550  -9.7550  -9.6181  -9.6180  -9.6087  -9.5888
    -9.4983  -9.4955  -9.4955  -9.3740  -9.3740  -9.3556  -9.2815  -9.2275
    -9.2275  -9.1741  -9.1717  -9.1717  -9.0926  -9.0926  -9.0919  -9.0746
    -9.0646  -9.0646  -9.0531  -9.0531  -8.9058  -8.9058  -8.8849  -8.7373
    -8.7373  -8.6404  -8.6404  -8.6202  -8.5929  -8.5800  -8.5800  -8.5371
    -8.5371  -8.5114  -8.5114  -8.4687  -8.4687  -8.4552  -8.4334  -8.4027
    -8.4027  -8.3558  -8.3199  -8.3199  -8.3116  -8.2660  -8.2659  -8.2616
    -8.2565  -8.2565  -8.0961  -8.0961  -8.0354  -8.0323  -6.1861  -3.3773
    -2.6083  -2.6083  -2.3548  -2.0440  -1.8414  -1.8414  -1.7044  -1.7044
    -1.4445  -0.7859  -0.7859  -0.7157   0.0547   0.4819   0.4819   0.5479
     1.6528   2.0099   2.0099   2.7182   2.7182

[...]

          k =-0.0799 0.0462 0.0000 ( 21576 PWs)   bands (ev):

[...]

     the Fermi energy is     0.1754 ev

!    total energy              =   -1425.52658122 Ry
     Harris-Foulkes estimate   =   -1425.52655978 Ry
     estimated scf accuracy    <       0.00000359 Ry

     The total energy is the sum of the following terms:

     one-electron contribution =   -9132.79339010 Ry
     hartree contribution      =    4660.38213318 Ry
     xc contribution           =    -497.27391443 Ry
     ewald contribution        =    3544.18688372 Ry
     electric field correction =       0.00050831 Ry
     smearing contrib. (-TS)   =      -0.02880189 Ry

     convergence has been achieved in  16 iterations

 BEEF-vdW xc energy contributions
           1 :   -435.595680643803
           2 :    398.244129037102
           3 :   -335.292513111868
           4 :    264.678318940512
           5 :   -202.870559634162
           6 :    159.029084811893
           7 :   -133.331717130717
           8 :    119.541930396381
           9 :   -109.824212140573
          10 :    99.0009681427196
          11 :   -86.2354062601172
          12 :    73.8698570809108
          13 :   -64.7647215010952
          14 :    60.0505395887853
          15 :   -58.5479661154239
          16 :    57.8250456454325
          17 :   -55.8714784818064
          18 :    52.2096202205133
          19 :   -47.8488584253888
          20 :    44.3205699587527
          21 :   -42.5651859376442
          22 :    42.3957437975191
          23 :   -42.7697342255542
          24 :    42.5539054237352
          25 :   -41.2197252365194
          26 :    39.0533222396019
          27 :   -36.8402703942468
          28 :    35.3080245397417
          29 :   -34.7015124846601
          30 :    34.7221871628832
          31 :   -39.3473967093052
          32 :   -28.6849724433468

     Forces acting on atoms (Ry/au):

     negative rho (up, down):  2.668E-01 0.000E+00
     atom    1 type  1   force =    -0.00029031   -0.00012173   -0.01869497
     atom    2 type  1   force =     0.00035080   -0.00012566   -0.01870641
     atom    3 type  1   force =     0.00004594    0.00031430   -0.01872352
     atom    4 type  1   force =     0.00000272   -0.00002011   -0.01726535
     atom    5 type  1   force =    -0.00001820    0.00107491    0.00303920
     atom    6 type  1   force =    -0.00000856   -0.00000782    0.00077641
     atom    7 type  1   force =    -0.00096659   -0.00055303    0.00307527
     atom    8 type  1   force =     0.00092414   -0.00055019    0.00305871
     atom    9 type  1   force =     0.00000355    0.00000441    0.01380469
     atom   10 type  1   force =    -0.00001086   -0.01184882    0.03075000
     atom   11 type  1   force =    -0.01025684    0.00592841    0.03076921
     atom   12 type  1   force =     0.01022868    0.00590956    0.03077010
     atom   13 type  2   force =    -0.00000447   -0.00000423   -0.04265333

     Total force =     0.072590     Total SCF correction =     0.002950

     entering subroutine stress ...

     negative rho (up, down):  2.668E-01 0.000E+00
          total   stress  (Ry/bohr**3)                   (kbar)     P=    3.54
   0.00000243  -0.00000000  -0.00000000          0.36     -0.00     -0.00
  -0.00000000   0.00000242   0.00000000         -0.00      0.36      0.00
  -0.00000000   0.00000000   0.00006744         -0.00      0.00      9.92

     BFGS Geometry Optimization

     number of scf cycles    =   1
     number of bfgs steps    =   0

     energy   new            =   -1425.5265812227 Ry

     new trust radius        =       0.0426533321 bohr
     new conv_thr            =       0.0000099958 Ry

ATOMIC_POSITIONS (crystal)
Cd1      0.166666667   0.166666667   0.398302599    0   0   0
Cd1      0.666666667   0.166666667   0.398302599    0   0   0
Cd1      0.166666667   0.666666667   0.398302599    0   0   0
Cd1      0.666666667   0.666666667   0.398302599    0   0   0
Cd1      0.833333333   0.333333333   0.500000000    0   0   0
Cd1      0.333333333   0.333333333   0.500000000    0   0   0
Cd1      0.833333333   0.833333333   0.500000000    0   0   0
Cd1      0.333333333   0.833333333   0.500000000    0   0   0
Cd1      0.000000085   0.000000431   0.601988366
Cd1      0.500577901  -0.001157639   0.602345527
Cd1     -0.001157451   0.500579210   0.602345932
Cd1      0.500576778   0.500577369   0.602345951
O1       0.333333162   0.333332920   0.655166690

     Writing output data file calc.save
     Check: negative starting charge=   -0.258045
     NEW-OLD atomic charge density approx. for the potential
     Check: negative starting charge=   -0.258439

[...]

     energy   old            =   -1425.5265812227 Ry
     energy   new            =   -1425.5315840924 Ry

     CASE: energy  _new < energy  _old

     WARNING: bfgs curvature condition failed, Theta= 0.914
     new trust radius        =       0.0469186653 bohr
     new conv_thr            =       0.0000001000 Ry

[...]

     Total force =     0.003703     Total SCF correction =     0.000567
     SCF correction compared to forces is large: reduce conv_thr to get better values

[...]

     Total force =     0.003047     Total SCF correction =     0.000250

[...]

     number of scf cycles    =  20
     number of bfgs steps    =  19

     energy   old            =   -1425.5725941166 Ry
     energy   new            =   -1425.5726157564 Ry

     CASE: energy  _new < energy  _old

     new trust radius        =       0.0115597895 bohr
     new conv_thr            =       0.0000001000 Ry

ATOMIC_POSITIONS (crystal)
Cd1      0.166666667   0.166666667   0.398302599    0   0   0
Cd1      0.666666667   0.166666667   0.398302599    0   0   0
Cd1      0.166666667   0.666666667   0.398302599    0   0   0
Cd1      0.666666667   0.666666667   0.398302599    0   0   0
Cd1      0.833333333   0.333333333   0.500000000    0   0   0
Cd1      0.333333333   0.333333333   0.500000000    0   0   0
Cd1      0.833333333   0.833333333   0.500000000    0   0   0
Cd1      0.333333333   0.833333333   0.500000000    0   0   0
Cd1     -0.000001591  -0.000003571   0.608824783
Cd1      0.514895902  -0.029802461   0.621038699
Cd1     -0.029807670   0.514904561   0.621042386
Cd1      0.514906340   0.514902730   0.621041611
O1       0.333333845   0.333332872   0.655089306

     Writing output data file calc.save
     Check: negative starting charge=   -0.259516
     NEW-OLD atomic charge density approx. for the potential
     Check: negative starting charge=   -0.258931

[...]

     Self-consistent Calculation

[...]

     Threshold (ethr) on eigenvalues was too large:
     Diagonalizing with lowered threshold

     Davidson diagonalization with overlap
     ethr =  7.88E-08,  avg # of iterations =  1.1

[...]

     total energy              =   -1425.57264127 Ry
     Harris-Foulkes estimate   =   -1425.57264119 Ry
     estimated scf accuracy    <       0.00000012 Ry

     iteration #  6     ecut=    36.75 Ry     beta=0.30
     Davidson diagonalization with overlap
     ethr =  7.72E-11,  avg # of iterations =  2.9

[...]

     negative rho (up, down):  2.677E-01 0.000E+00

     Adding external electric field

     Computed dipole along edir(3) :
        Dipole               -0.1995 Ry au,         -0.5071 Debye
        Dipole field         -0.0004 Ry au

        Potential amp.        0.0404 Ry
        Total length         46.2584 bohr

     End of self-consistent calculation

[...]

          k = 0.0533-0.0615 0.0000 ( 21571 PWs)   bands (ev):

[...]

          k =-0.0799-0.0462 0.0000 ( 21576 PWs)   bands (ev):

   -17.1755  -9.1579  -9.1495  -9.0625  -9.0411  -9.0182  -9.0148  -8.9888
    -8.9710  -8.9643  -8.9515  -8.9497  -8.8570  -8.8405  -8.8271  -8.8128
    -8.7857  -8.7814  -8.7356  -8.6953  -8.6894  -8.6712  -8.6609  -8.6175
    -8.6159  -8.5953  -8.5893  -8.5745  -8.5625  -8.5467  -8.5316  -8.4908
    -8.4630  -8.4541  -8.4341  -8.4297  -8.4245  -8.3995  -8.3893  -8.3733
    -8.3478  -8.3441  -8.3418  -8.3301  -8.3243  -8.2985  -8.2401  -8.2317
    -8.2170  -8.2013  -8.1918  -8.1844  -8.1533  -8.0904  -8.0621  -8.0582
    -8.0568  -8.0127  -7.9481  -7.7777  -7.7457  -6.0056  -5.8771  -4.7524
    -4.0085  -3.3223  -2.9043  -2.8267  -2.6043  -2.1714  -1.9791  -1.4829
    -0.6141  -0.2158   0.8572   1.1064   1.1200   1.7786   2.7910   2.7984
     3.1720   3.2519   3.4770   3.7277   4.1092

     the Fermi energy is     0.5046 ev

!    total energy              =   -1425.57264140 Ry
     Harris-Foulkes estimate   =   -1425.57264137 Ry
     estimated scf accuracy    <       0.00000004 Ry

     The total energy is the sum of the following terms:

     one-electron contribution =   -8666.80234611 Ry
     hartree contribution      =    4428.93746881 Ry
     xc contribution           =    -497.21958408 Ry
     ewald contribution        =    3309.53346271 Ry
     electric field correction =       0.00008716 Ry
     smearing contrib. (-TS)   =      -0.02172990 Ry

     convergence has been achieved in   6 iterations

 BEEF-vdW xc energy contributions
           1 :   -435.529659675198
           2 :    398.059399126813
           3 :   -334.948026296947
           4 :    264.253877702121
           5 :   -202.514574888366
           6 :    158.839757654714
           7 :   -133.280475063118
           8 :    119.505257951530
           9 :   -109.692289508126
          10 :    98.7693898356964
          11 :   -86.0038178550443
          12 :    73.7532868145576
          13 :   -64.7960821542049
          14 :    60.1539120364137
          15 :   -58.6006213667087
          16 :    57.7586075507986
          17 :   -55.7294817897620
          18 :    52.1089083717399
          19 :   -47.8759401077723
          20 :    44.4537930396835
          21 :   -42.6896639591354
          22 :    42.3979964165521
          23 :   -42.6338109696256
          24 :    42.3792259796588
          25 :   -41.1443371560769
          26 :    39.1426155207633
          27 :   -37.0285434011601
          28 :    35.4427612401691
          29 :   -34.6616318763798
          30 :    34.5165737614623
          31 :   -39.3368558156352
          32 :   -28.6392279040512

     Forces acting on atoms (Ry/au):

     negative rho (up, down):  2.677E-01 0.000E+00
     atom    1 type  1   force =    -0.00016471   -0.00009520   -0.01923347
     atom    2 type  1   force =     0.00016471   -0.00009526   -0.01923344
     atom    3 type  1   force =    -0.00000003    0.00019037   -0.01923378
     atom    4 type  1   force =     0.00000004    0.00000020   -0.01725290
     atom    5 type  1   force =     0.00000001    0.00198953    0.01875657
     atom    6 type  1   force =     0.00000011    0.00000026    0.01831268
     atom    7 type  1   force =    -0.00172307   -0.00099492    0.01875635
     atom    8 type  1   force =     0.00172279   -0.00099471    0.01875676
     atom    9 type  1   force =     0.00000026    0.00000151   -0.00189171
     atom   10 type  1   force =     0.00000110    0.00061279    0.00094612
     atom   11 type  1   force =     0.00053151   -0.00030658    0.00094759
     atom   12 type  1   force =    -0.00053528   -0.00030980    0.00094850
     atom   13 type  2   force =     0.00000254    0.00000181   -0.00057928

     Total force =     0.002782     Total SCF correction =     0.000310
     SCF correction compared to forces is large: reduce conv_thr to get better values

     entering subroutine stress ...

     negative rho (up, down):  2.677E-01 0.000E+00
          total   stress  (Ry/bohr**3)                   (kbar)     P=    1.09
  -0.00000608  -0.00000000   0.00000000         -0.89     -0.00      0.00
  -0.00000000  -0.00000608   0.00000000         -0.00     -0.89      0.00
   0.00000000   0.00000000   0.00003433          0.00      0.00      5.05

     bfgs converged in  21 scf cycles and  20 bfgs steps
     (criteria: energy <  1.0E+00, force <  1.9E-03)

     End of BFGS Geometry Optimization

     Final energy   =   -1425.5726414038 Ry
Begin final coordinates

ATOMIC_POSITIONS (crystal)
Cd1      0.166666667   0.166666667   0.398302599    0   0   0
Cd1      0.666666667   0.166666667   0.398302599    0   0   0
Cd1      0.166666667   0.666666667   0.398302599    0   0   0
Cd1      0.666666667   0.666666667   0.398302599    0   0   0
Cd1      0.833333333   0.333333333   0.500000000    0   0   0
Cd1      0.333333333   0.333333333   0.500000000    0   0   0
Cd1      0.833333333   0.833333333   0.500000000    0   0   0
Cd1      0.333333333   0.833333333   0.500000000    0   0   0
Cd1     -0.000001591  -0.000003571   0.608824783
Cd1      0.514895902  -0.029802461   0.621038699
Cd1     -0.029807670   0.514904561   0.621042386
Cd1      0.514906340   0.514902730   0.621041611
O1       0.333333845   0.333332872   0.655089306
End final coordinates

     Writing output data file calc.save

     General routines

     Parallel routines

   This run was terminated on:  13:14: 5  21Feb2018

   JOB DONE.