     Program PWSCF v.5.1rc2 (svn rev. 11289) starts on 20Jan2018 at  8:23:55

     Current dimensions of program PWSCF are:
     Max number of different atomic species (ntypx) = 10
     Max number of k-points (npk) =  40000
     Max angular momentum in pseudopotentials (lmaxx) =  3
     Presently stress not available with electric field

     IMPORTANT: XC functional enforced from input :
     Exchange-correlation      = BEEF-VDW ( 1  4 27 13 2)
     Any further DFT definition will be discarded
     Please, verify this is what you really want

     Subspace diagonalization in iterative solution of the eigenvalue problem:
     a serial algorithm will be used

     bravais-lattice index     =            0
     lattice parameter (alat)  =       1.8897  a.u.
     unit-cell volume          =    4552.2840 (a.u.)^3
     number of atoms/cell      =           13
     number of atomic types    =            2
     number of electrons       =       174.00
     number of Kohn-Sham states=           97
     kinetic-energy cutoff     =      36.7493  Ry
     charge density cutoff     =     367.4932  Ry
     convergence threshold     =      1.0E-05
     mixing beta               =       0.3000
     number of iterations used =           10  plain     mixing
     Exchange-correlation      = BEEF-VDW ( 1  4 27 13 2)
     nstep                     =           50

     celldm(1)=   1.889726  celldm(2)=   0.000000  celldm(3)=   0.000000
     celldm(4)=   0.000000  celldm(5)=   0.000000  celldm(6)=   0.000000

     crystal axes: (cart. coord. in units of alat)
               a(1) = (   5.627661   0.000000   0.000000 )
               a(2) = (   2.813831   4.873698   0.000000 )
               a(3) = (   0.000000   0.000000  24.594966 )

     reciprocal axes: (cart. coord. in units 2 pi/alat)
               b(1) = (  0.177694 -0.102592  0.000000 )
               b(2) = (  0.000000  0.205183  0.000000 )
               b(3) = (  0.000000  0.000000  0.040659 )

     PseudoPot. # 1 for Mo read from file:
     /afs/slac.stanford.edu/u/if/mamunm/psp/gbrv1.5pbe/Mo.UPF
     MD5 check sum: 30c4dcd161f5d35cd49bb5239c51a633
     Pseudo is Ultrasoft + core correction, Zval = 14.0
     Generated by new atomic code, or converted to UPF format
     Using radial grid of  889 points,  6 beta functions with:
                l(1) =   0
                l(2) =   0
                l(3) =   1
                l(4) =   1
                l(5) =   2
                l(6) =   2
     Q(r) pseudized with  6 coefficients,  rinner =    1.000   1.000   1.000
                                                       1.000   1.000

     PseudoPot. # 2 for S  read from file:
     /afs/slac.stanford.edu/u/if/mamunm/psp/gbrv1.5pbe/S.UPF
     MD5 check sum: 88d86576ff6df21479756cfb9bdac1df
     Pseudo is Ultrasoft + core correction, Zval =  6.0
     Generated by new atomic code, or converted to UPF format
     Using radial grid of  907 points,  6 beta functions with:
                l(1) =   0
                l(2) =   0
                l(3) =   1
                l(4) =   1
                l(5) =   2
                l(6) =   2
     Q(r) pseudized with  8 coefficients,  rinner =    1.300   1.300   1.300
                                                       1.300   1.300

     vdW kernel table read from file vdW_kernel_table
     MD5 check sum: 095c7af220d748ca6e76c0b4c6cfb241

     atomic species   valence    mass     pseudopotential
        Mo1           14.00    95.95000     Mo( 1.00)
        S1             6.00    32.06000     S ( 1.00)

     No symmetry found

   Cartesian axes

     site n.     atom                  positions (alat units)
         1           Mo1 tau(   1) = (   1.4069153   0.8122829  10.0000000  )
         2           Mo1 tau(   2) = (   4.2207459   0.8122829  10.0000000  )
         3           Mo1 tau(   3) = (   2.8138306   3.2491317  10.0000000  )
         4           Mo1 tau(   4) = (   5.6276612   3.2491317  10.0000000  )
         5           Mo1 tau(   5) = (   5.6276612   1.6245658  12.2974831  )
         6           Mo1 tau(   6) = (   2.8138306   1.6245658  12.2974831  )
         7           Mo1 tau(   7) = (   7.0345765   4.0614146  12.2974831  )
         8           Mo1 tau(   8) = (   4.2207459   4.0614146  12.2974831  )
         9           Mo1 tau(   9) = (   0.0000000   0.0000000  14.5949661  )
        10           Mo1 tau(  10) = (   2.8138306   0.0000000  14.5949661  )
        11           Mo1 tau(  11) = (   1.4069153   2.4368488  14.5949661  )
        12           Mo1 tau(  12) = (   4.2207459   2.4368488  14.5949661  )
        13           S1  tau(  13) = (   2.8138306   1.6245658  17.1849661  )

     number of k points=    20  Fermi-Dirac smearing, width (Ry)=  0.0110
                       cart. coord. in units 2pi/alat
        k(    1) = (   0.0000000   0.0000000   0.0000000), wk =   0.0555556
        k(    2) = (   0.0000000   0.0341972   0.0000000), wk =   0.1111111
        k(    3) = (   0.0000000   0.0683943   0.0000000), wk =   0.1111111
        k(    4) = (   0.0000000  -0.1025915   0.0000000), wk =   0.0555556
        k(    5) = (   0.0296156  -0.0170986   0.0000000), wk =   0.1111111
        k(    6) = (   0.0296156   0.0170986   0.0000000), wk =   0.1111111
        k(    7) = (   0.0296156   0.0512958   0.0000000), wk =   0.1111111
        k(    8) = (   0.0296156  -0.1196901   0.0000000), wk =   0.1111111
        k(    9) = (   0.0296156  -0.0854929   0.0000000), wk =   0.1111111
        k(   10) = (   0.0296156  -0.0512958   0.0000000), wk =   0.1111111
        k(   11) = (   0.0592312  -0.0341972   0.0000000), wk =   0.1111111
        k(   12) = (   0.0592312   0.0000000   0.0000000), wk =   0.1111111
        k(   13) = (   0.0592312   0.0341972   0.0000000), wk =   0.1111111
        k(   14) = (   0.0592312  -0.1367887   0.0000000), wk =   0.1111111
        k(   15) = (   0.0592312  -0.1025915   0.0000000), wk =   0.1111111
        k(   16) = (   0.0592312  -0.0683943   0.0000000), wk =   0.1111111
        k(   17) = (  -0.0888469   0.0512958   0.0000000), wk =   0.0555556
        k(   18) = (  -0.0888469   0.0854929   0.0000000), wk =   0.1111111
        k(   19) = (  -0.0888469   0.1196901   0.0000000), wk =   0.1111111
        k(   20) = (  -0.0888469  -0.0512958   0.0000000), wk =   0.0555556

     Largest allocated arrays     est. size (Mb)     dimensions
     Largest temporary arrays     est. size (Mb)     dimensions

     Initial potential from superposition of free atoms
     Check: negative starting charge=   -0.004465

     starting charge  173.98720, renormalised to  174.00000

     negative rho (up, down):  4.465E-03 0.000E+00

     *
     * You are using vdW-DF for exchange-correlation in this calculation.
     * Please cite the following three references that made this development
     * possible:
     *
     *   M. Dion, H. Rydberg, E. Schroder, D. C. Langreth, and
     *   B. I. Lundqvist, Phys. Rev. Lett. 92, 246401 (2004).
     *
     *   T. Thonhauser, V. R. Cooper, S. Li, A. Puzder, P. Hyldgaard, and
     *   D. C. Langreth, Phys. Rev. B 76, 125112 (2007).
     *
     *   G. Roman-Perez and J. M. Soler, Phys. Rev. Lett. 103, 096102 (2009).
     *
     *
     * If you are using vdW-DF2, please also cite:
     *
     *   K. Lee, E. D. Murray, L. Kong, B. I. Lundqvist, and
     *   D. C. Langreth, Phys. Rev. B 82, 081101(R) (2010).
     *
     *
     * If you are calculating the stress with vdW-DF, please also cite:
     *
     *   R. Sabatini, E. Kucukbenli, B. Kolb, T. Thonhauser, and
     *   S. de Gironcoli, J. Phys.: Condens. Matter 24, 424209 (2012).
     *

     Carrying out vdW-DF run using the following parameters:

     Nqs =      20    Nr_points =    1024   r_max =   100.000
     q_mesh =
               0.00001000     0.04494208     0.09755937     0.15916263
               0.23128650     0.31572767     0.41458969     0.53033537
               0.66584808     0.82450364     1.01025438     1.22772762
               1.48234092     1.78043706     2.12944203     2.53805004
               3.01644009     3.57652955     4.23227104     5.00000000

     Gradients computed in reciprocal space

     Adding external electric field

     Computed dipole along edir(3) :
        Dipole               -0.0037 Ry au,         -0.0095 Debye
        Dipole field         -0.0000 Ry au

        Potential amp.        0.0009 Ry
        Total length         45.3158 bohr

     Starting wfc are  160 randomized atomic wfcs

     Self-consistent Calculation

     iteration #  1     ecut=    36.75 Ry     beta=0.30
     Davidson diagonalization with overlap
     ethr =  1.00E-02,  avg # of iterations =  2.0

[...]

     total energy              =   -1696.14580837 Ry
     Harris-Foulkes estimate   =   -1704.27542113 Ry
     estimated scf accuracy    <      16.71115372 Ry

[...]

     End of self-consistent calculation

          k = 0.0000 0.0000 0.0000 ( 17111 PWs)   bands (ev):

   -59.0579 -58.9521 -58.8932 -58.8928 -58.8483 -58.8361 -58.7736 -58.7734
   -58.7732 -58.7358 -58.7353 -58.7351 -33.5730 -33.5514 -33.5513 -33.4826
   -33.4788 -33.4722 -33.4722 -33.3804 -33.3764 -33.3763 -33.0675 -32.9448
   -32.9443 -32.9262 -32.8500 -32.8497 -32.8496 -32.7484 -32.7483 -32.7482
   -32.6324 -32.6322 -32.6313 -32.6132 -32.6127 -32.6125 -32.5312 -32.5080
   -32.5079 -32.5074 -32.4731 -32.4731 -32.3896 -32.3896 -32.3096 -32.3095
    -8.9389  -3.9387  -2.6355  -2.4806  -2.4612  -2.4611  -2.4324  -2.0271
    -2.0271  -2.0147  -1.8117  -1.8041  -1.8041  -1.5974  -1.5702  -1.5701
    -0.5692  -0.3930  -0.3928   0.3026   0.5636   0.5636   0.7002   0.9246
     1.0625   1.0625   1.2471   1.3216   1.3216   1.5721   1.5721   1.6931
     1.7012   1.7013   1.7647   1.7648   2.0001   2.2355   2.2357   2.4534
     3.1353   3.1353   3.1871   3.2878   3.2977   3.2978   3.8397   3.8397
     4.0135

[...]

          k =-0.0888 0.0513 0.0000 ( 17160 PWs)   bands (ev):

[...]

     the Fermi energy is     2.0280 ev

!    total energy              =   -1703.67676113 Ry
     Harris-Foulkes estimate   =   -1703.67677041 Ry
     estimated scf accuracy    <       0.00000789 Ry

     The total energy is the sum of the following terms:

     one-electron contribution =  -15363.75503752 Ry
     hartree contribution      =    7677.18362419 Ry
     xc contribution           =    -248.67872915 Ry
     ewald contribution        =    6231.67833283 Ry
     electric field correction =       0.00053622 Ry
     smearing contrib. (-TS)   =      -0.10548770 Ry

     convergence has been achieved in  23 iterations

 BEEF-vdW xc energy contributions
           1 :   -213.429509861218
           2 :    194.593890920600
           3 :   -162.427981419669
           4 :    125.508047400972
           5 :   -92.3038139791580
           6 :    68.5379981543755
           7 :   -55.9142981717675
           8 :    52.4146626453323
           9 :   -53.8407326203941
          10 :    55.8008132140497
          11 :   -55.3295041802387
          12 :    51.5884001233293
          13 :   -45.5861427319802
          14 :    39.2328889369247
          15 :   -34.2527146484038
          16 :    31.4075675647470
          17 :   -30.3022384796811
[...]
     SCF correction compared to forces is large: reduce conv_thr to get better values

[...]

     iteration #  8     ecut=    36.75 Ry     beta=0.30
     Davidson diagonalization with overlap
     c_bands:  1 eigenvalues not converged
     ethr =  8.81E-06,  avg # of iterations =  5.8

[...]

     Program PWSCF v.5.1rc2 (svn rev. 11289) starts on 20Jan2018 at 10:37: 3

[...]

     Total force =     0.070296     Total SCF correction =     0.015002
     SCF correction compared to forces is large: reduce conv_thr to get better values

[...]

   This run was terminated on:  10:50:16  20Jan2018

[...]

     Program PWSCF v.5.1rc2 (svn rev. 11289) starts on 20Jan2018 at 10:50:23

     Current dimensions of program PWSCF are:
     Max number of different atomic species (ntypx) = 10
     Max number of k-points (npk) =  40000
     Max angular momentum in pseudopotentials (lmaxx) =  3
     Presently stress not available with electric field

     IMPORTANT: XC functional enforced from input :
     Exchange-correlation      = BEEF-VDW ( 1  4 27 13 2)
     Any further DFT definition will be discarded
     Please, verify this is what you really want

     Subspace diagonalization in iterative solution of the eigenvalue problem:
     a serial algorithm will be used

     bravais-lattice index     =            0
     lattice parameter (alat)  =       1.8897  a.u.
     unit-cell volume          =    4552.2840 (a.u.)^3
     number of atoms/cell      =           13
     number of atomic types    =            2
     number of electrons       =       174.00
     number of Kohn-Sham states=           97
     kinetic-energy cutoff     =      36.7493  Ry
     charge density cutoff     =     367.4932  Ry
     convergence threshold     =      1.0E-05
     mixing beta               =       0.3000
     number of iterations used =           10  plain     mixing
     Exchange-correlation      = BEEF-VDW ( 1  4 27 13 2)
     nstep                     =           50

     celldm(1)=   1.889726  celldm(2)=   0.000000  celldm(3)=   0.000000
     celldm(4)=   0.000000  celldm(5)=   0.000000  celldm(6)=   0.000000

     crystal axes: (cart. coord. in units of alat)
               a(1) = (   5.627661   0.000000   0.000000 )
               a(2) = (   2.813831   4.873698   0.000000 )
               a(3) = (   0.000000   0.000000  24.594966 )

     reciprocal axes: (cart. coord. in units 2 pi/alat)
               b(1) = (  0.177694 -0.102592  0.000000 )
               b(2) = (  0.000000  0.205183  0.000000 )
               b(3) = (  0.000000  0.000000  0.040659 )

     PseudoPot. # 1 for Mo read from file:
     /afs/slac.stanford.edu/u/if/mamunm/psp/gbrv1.5pbe/Mo.UPF
     MD5 check sum: 30c4dcd161f5d35cd49bb5239c51a633
     Pseudo is Ultrasoft + core correction, Zval = 14.0
     Generated by new atomic code, or converted to UPF format
     Using radial grid of  889 points,  6 beta functions with:
                l(1) =   0
                l(2) =   0
                l(3) =   1
                l(4) =   1
                l(5) =   2
                l(6) =   2
     Q(r) pseudized with  6 coefficients,  rinner =    1.000   1.000   1.000
                                                       1.000   1.000

     PseudoPot. # 2 for S  read from file:
     /afs/slac.stanford.edu/u/if/mamunm/psp/gbrv1.5pbe/S.UPF
     MD5 check sum: 88d86576ff6df21479756cfb9bdac1df
     Pseudo is Ultrasoft + core correction, Zval =  6.0
     Generated by new atomic code, or converted to UPF format
     Using radial grid of  907 points,  6 beta functions with:
                l(1) =   0
                l(2) =   0
                l(3) =   1
                l(4) =   1
                l(5) =   2
                l(6) =   2
     Q(r) pseudized with  8 coefficients,  rinner =    1.300   1.300   1.300
                                                       1.300   1.300

     vdW kernel table read from file vdW_kernel_table
     MD5 check sum: 095c7af220d748ca6e76c0b4c6cfb241

     atomic species   valence    mass     pseudopotential
        Mo1           14.00    95.95000     Mo( 1.00)
        S1             6.00    32.06000     S ( 1.00)

     No symmetry found

   Cartesian axes

     site n.     atom                  positions (alat units)
         1           Mo1 tau(   1) = (   1.4069153   0.8122829  10.0000000  )
         2           Mo1 tau(   2) = (   4.2207459   0.8122829  10.0000000  )
         3           Mo1 tau(   3) = (   2.8138306   3.2491317  10.0000000  )
         4           Mo1 tau(   4) = (   5.6276612   3.2491317  10.0000000  )
         5           Mo1 tau(   5) = (   5.6276612   1.6245658  12.2974831  )
         6           Mo1 tau(   6) = (   2.8138306   1.6245658  12.2974831  )
         7           Mo1 tau(   7) = (   7.0345765   4.0614146  12.2974831  )
         8           Mo1 tau(   8) = (   4.2207459   4.0614146  12.2974831  )
         9           Mo1 tau(   9) = (   8.4414487   4.8736481  14.3156158  )
        10           Mo1 tau(  10) = (   5.6277949   4.7991664  14.6928667  )
        11           Mo1 tau(  11) = (   6.9701542   2.4742858  14.6929904  )
        12           Mo1 tau(  12) = (   4.2851593   2.4740862  14.6931082  )
        13           S1  tau(  13) = (   2.8138598   1.6246053  16.4056044  )

     number of k points=    20  Fermi-Dirac smearing, width (Ry)=  0.0110
                       cart. coord. in units 2pi/alat
        k(    1) = (   0.0000000   0.0000000   0.0000000), wk =   0.0555556
        k(    2) = (   0.0000000   0.0341972   0.0000000), wk =   0.1111111
        k(    3) = (   0.0000000   0.0683943   0.0000000), wk =   0.1111111
        k(    4) = (   0.0000000  -0.1025915   0.0000000), wk =   0.0555556
        k(    5) = (   0.0296156  -0.0170986   0.0000000), wk =   0.1111111
        k(    6) = (   0.0296156   0.0170986   0.0000000), wk =   0.1111111
        k(    7) = (   0.0296156   0.0512958   0.0000000), wk =   0.1111111
        k(    8) = (   0.0296156  -0.1196901   0.0000000), wk =   0.1111111
        k(    9) = (   0.0296156  -0.0854929   0.0000000), wk =   0.1111111
        k(   10) = (   0.0296156  -0.0512958   0.0000000), wk =   0.1111111
        k(   11) = (   0.0592312  -0.0341972   0.0000000), wk =   0.1111111
        k(   12) = (   0.0592312   0.0000000   0.0000000), wk =   0.1111111
        k(   13) = (   0.0592312   0.0341972   0.0000000), wk =   0.1111111
        k(   14) = (   0.0592312  -0.1367887   0.0000000), wk =   0.1111111
        k(   15) = (   0.0592312  -0.1025915   0.0000000), wk =   0.1111111
        k(   16) = (   0.0592312  -0.0683943   0.0000000), wk =   0.1111111
        k(   17) = (  -0.0888469   0.0512958   0.0000000), wk =   0.0555556
        k(   18) = (  -0.0888469   0.0854929   0.0000000), wk =   0.1111111
        k(   19) = (  -0.0888469   0.1196901   0.0000000), wk =   0.1111111
        k(   20) = (  -0.0888469  -0.0512958   0.0000000), wk =   0.0555556

     Largest allocated arrays     est. size (Mb)     dimensions
     Largest temporary arrays     est. size (Mb)     dimensions

     Initial potential from superposition of free atoms
     Check: negative starting charge=   -0.004745

     starting charge  173.98720, renormalised to  174.00000

[...]

     *
     * You are using vdW-DF for exchange-correlation in this calculation.
     * Please cite the following three references that made this development
     * possible:
     *
     *   M. Dion, H. Rydberg, E. Schroder, D. C. Langreth, and
     *   B. I. Lundqvist, Phys. Rev. Lett. 92, 246401 (2004).
     *
     *   T. Thonhauser, V. R. Cooper, S. Li, A. Puzder, P. Hyldgaard, and
     *   D. C. Langreth, Phys. Rev. B 76, 125112 (2007).
     *
     *   G. Roman-Perez and J. M. Soler, Phys. Rev. Lett. 103, 096102 (2009).
     *
     *
     * If you are using vdW-DF2, please also cite:
     *
     *   K. Lee, E. D. Murray, L. Kong, B. I. Lundqvist, and
     *   D. C. Langreth, Phys. Rev. B 82, 081101(R) (2010).
     *
     *
     * If you are calculating the stress with vdW-DF, please also cite:
     *
     *   R. Sabatini, E. Kucukbenli, B. Kolb, T. Thonhauser, and
     *   S. de Gironcoli, J. Phys.: Condens. Matter 24, 424209 (2012).
     *

     Carrying out vdW-DF run using the following parameters:

     Nqs =      20    Nr_points =    1024   r_max =   100.000
     q_mesh =
               0.00001000     0.04494208     0.09755937     0.15916263
               0.23128650     0.31572767     0.41458969     0.53033537
               0.66584808     0.82450364     1.01025438     1.22772762
               1.48234092     1.78043706     2.12944203     2.53805004
               3.01644009     3.57652955     4.23227104     5.00000000

     Gradients computed in reciprocal space

[...]

     Starting wfc are  160 randomized atomic wfcs

     Self-consistent Calculation

[...]

     total energy              =   -1703.85994554 Ry
     Harris-Foulkes estimate   =   -1703.85994669 Ry
     estimated scf accuracy    <       0.00002353 Ry

     iteration # 14     ecut=    36.75 Ry     beta=0.30
     Davidson diagonalization with overlap
     ethr =  1.35E-08,  avg # of iterations =  4.2

[...]

     negative rho (up, down):  4.735E-03 0.000E+00

     Adding external electric field

     Computed dipole along edir(3) :
        Dipole               -0.1032 Ry au,         -0.2623 Debye
        Dipole field         -0.0003 Ry au

        Potential amp.        0.0258 Ry
        Total length         45.3158 bohr

     End of self-consistent calculation

[...]

          k = 0.0592-0.0684 0.0000 ( 17122 PWs)   bands (ev):

[...]

          k =-0.0888-0.0513 0.0000 ( 17160 PWs)   bands (ev):

   -58.5427 -58.5318 -58.4833 -58.4406 -58.4236 -58.4202 -58.3933 -58.3481
   -58.3407 -58.3327 -58.3013 -58.2956 -33.0774 -32.9860 -32.9759 -32.9234
   -32.9118 -32.8764 -32.8155 -32.7507 -32.7459 -32.7089 -32.6689 -32.6370
   -32.6174 -32.5089 -32.4728 -32.4621 -32.4609 -32.4300 -32.4107 -32.3893
   -32.3659 -32.3394 -32.3237 -32.3068 -32.3027 -32.2551 -32.2314 -32.1735
   -32.1719 -32.1263 -32.0932 -32.0622 -32.0405 -31.9940 -31.9556 -31.9514
   -10.4406  -2.2954  -1.9392  -1.6896  -1.5239  -1.4089  -1.2073  -1.0066
    -0.9836  -0.8688  -0.7696  -0.7688  -0.4568  -0.4395  -0.2507  -0.1703
    -0.1086  -0.0908  -0.0224   0.2809   0.4040   0.6222   0.6582   0.6860
     0.7033   1.0250   1.0335   1.2631   1.2822   1.3202   1.5975   1.6589
     1.6598   1.7451   1.8085   1.8597   1.9554   2.0004   2.1601   2.1705
     2.4887   2.5650   2.7836   3.0060   3.1521   3.1964   3.3378   3.5747
     3.6082

     the Fermi energy is     2.4793 ev

!    total energy              =   -1703.85994731 Ry
     Harris-Foulkes estimate   =   -1703.85994886 Ry
     estimated scf accuracy    <       0.00000482 Ry

     The total energy is the sum of the following terms:

     one-electron contribution =  -15592.94017702 Ry
     hartree contribution      =    7793.72526725 Ry
     xc contribution           =    -249.11128482 Ry
     ewald contribution        =    6344.56221357 Ry
     electric field correction =       0.00002939 Ry
     smearing contrib. (-TS)   =      -0.09599567 Ry

     convergence has been achieved in  14 iterations

 BEEF-vdW xc energy contributions
           1 :   -213.872465585966
           2 :    195.211482585856
           3 :   -163.244618317646
           4 :    126.386877585795
           5 :   -93.0484899905774
           6 :    69.0042366551195
           7 :   -56.0685294456800
           8 :    52.3241454536984
           9 :   -53.6163837737585
          10 :    55.5359045137694
          11 :   -55.0695432529882
          12 :    51.3375965031298
          13 :   -45.3341568845204
          14 :    38.9780303162956
          15 :   -34.0063575326063
          16 :    31.1837458432187
          17 :   -30.1068597910605
          18 :    29.5832632703188
          19 :   -28.3299549370854
          20 :    25.6184629470513
          21 :   -21.5726581456436
          22 :    17.0154634598172
          23 :   -12.9930764580060
          24 :    10.2373498227273
          25 :   -8.83579249299930
          26 :    8.24548318421182
          27 :   -7.61392900574751
          28 :    6.22007690091436
          29 :   -3.81364890785571
          30 :   0.696020021131687
          31 :   -24.4576886761661
          32 :   -18.7153218382360

     Forces acting on atoms (Ry/au):

     negative rho (up, down):  4.735E-03 0.000E+00
     atom    1 type  1   force =    -0.00229086   -0.00132195   -0.00556762
     atom    2 type  1   force =     0.00228638   -0.00131682   -0.00558498
     atom    3 type  1   force =     0.00000326    0.00264232   -0.00557769
     atom    4 type  1   force =    -0.00000844   -0.00000906    0.00405966
     atom    5 type  1   force =     0.00000481    0.01506869   -0.01458513
     atom    6 type  1   force =     0.00000012    0.00001136    0.05478257
     atom    7 type  1   force =    -0.01304606   -0.00753553   -0.01461838
     atom    8 type  1   force =     0.01304942   -0.00753493   -0.01456623
     atom    9 type  1   force =     0.00004248    0.00005325   -0.00053281
     atom   10 type  1   force =    -0.00006734    0.00080760    0.00043465
     atom   11 type  1   force =     0.00062022   -0.00045044    0.00041586
     atom   12 type  1   force =    -0.00062196   -0.00037514    0.00033170
     atom   13 type  2   force =     0.00002797   -0.00003936    0.00100841

     Total force =     0.066747     Total SCF correction =     0.006584

     entering subroutine stress ...

     negative rho (up, down):  4.735E-03 0.000E+00
          total   stress  (Ry/bohr**3)                   (kbar)     P=  -12.02
  -0.00012642  -0.00000001   0.00000007        -18.60     -0.00      0.01
  -0.00000001  -0.00012653  -0.00000005         -0.00    -18.61     -0.01
   0.00000007  -0.00000005   0.00000785          0.01     -0.01      1.15

 !ASE

     Writing output data file calc.save

     General routines

     Parallel routines

   This run was terminated on:  11: 2:41  20Jan2018

   JOB DONE.
Job  /afs/slac/g/suncat/bin/suncat-tsmpirun -x LD_LIBRARY_PATH -wdir /scratch/qe891410_uNx3x pw.x -in pw.inp

TID   HOST_NAME   COMMAND_LINE            STATUS            TERMINATION_TIME
00000 suncat1009 pw.x -in pw.inp   Done                     01/20/2018 11:02:41
00001 suncat1009 pw.x -in pw.inp   Done                     01/20/2018 11:02:41
00002 suncat1009 pw.x -in pw.inp   Done                     01/20/2018 11:02:41
00003 suncat1009 pw.x -in pw.inp   Done                     01/20/2018 11:02:41
00004 suncat1009 pw.x -in pw.inp   Done                     01/20/2018 11:02:41
00005 suncat1009 pw.x -in pw.inp   Done                     01/20/2018 11:02:41
00006 suncat1009 pw.x -in pw.inp   Done                     01/20/2018 11:02:41
00007 suncat1009 pw.x -in pw.inp   Done                     01/20/2018 11:02:41
00008 suncat1059 pw.x -in pw.inp   Done                     01/20/2018 11:02:41
00009 suncat1059 pw.x -in pw.inp   Done                     01/20/2018 11:02:41
00010 suncat1059 pw.x -in pw.inp   Done                     01/20/2018 11:02:41
00011 suncat1059 pw.x -in pw.inp   Done                     01/20/2018 11:02:41
00012 suncat1059 pw.x -in pw.inp   Done                     01/20/2018 11:02:41
00013 suncat1059 pw.x -in pw.inp   Done                     01/20/2018 11:02:41
00014 suncat1059 pw.x -in pw.inp   Done                     01/20/2018 11:02:41
00015 suncat1059 pw.x -in pw.inp   Done                     01/20/2018 11:02:41
00016 suncat1059 pw.x -in pw.inp   Done                     01/20/2018 11:02:41
00017 suncat1059 pw.x -in pw.inp   Done                     01/20/2018 11:02:41
00018 suncat1059 pw.x -in pw.inp   Done                     01/20/2018 11:02:41
00019 suncat1059 pw.x -in pw.inp   Done                     01/20/2018 11:02:41
00020 suncat1056 pw.x -in pw.inp   Done                     01/20/2018 11:02:41
00021 suncat1056 pw.x -in pw.inp   Done                     01/20/2018 11:02:41
00022 suncat1056 pw.x -in pw.inp   Done                     01/20/2018 11:02:41
00023 suncat1056 pw.x -in pw.inp   Done                     01/20/2018 11:02:41
00024 suncat1056 pw.x -in pw.inp   Done                     01/20/2018 11:02:41
00025 suncat1056 pw.x -in pw.inp   Done                     01/20/2018 11:02:41
00026 suncat1056 pw.x -in pw.inp   Done                     01/20/2018 11:02:41
00027 suncat1056 pw.x -in pw.inp   Done                     01/20/2018 11:02:41
00028 suncat1056 pw.x -in pw.inp   Done                     01/20/2018 11:02:41
00029 suncat1056 pw.x -in pw.inp   Done                     01/20/2018 11:02:41
00030 suncat1056 pw.x -in pw.inp   Done                     01/20/2018 11:02:41
00031 suncat1056 pw.x -in pw.inp   Done                     01/20/2018 11:02:41