     Program PWSCF v.5.1rc2 (svn rev. 11289) starts on 17Jan2018 at 16:17: 7

     Current dimensions of program PWSCF are:
     Max number of different atomic species (ntypx) = 10
     Max number of k-points (npk) =  40000
     Max angular momentum in pseudopotentials (lmaxx) =  3
     Presently stress not available with electric field

     IMPORTANT: XC functional enforced from input :
     Exchange-correlation      = BEEF-VDW ( 1  4 27 13 2)
     Any further DFT definition will be discarded
     Please, verify this is what you really want

     Subspace diagonalization in iterative solution of the eigenvalue problem:
     a serial algorithm will be used

     bravais-lattice index     =            0
     lattice parameter (alat)  =       1.8897  a.u.
     unit-cell volume          =    4228.3700 (a.u.)^3
     number of atoms/cell      =           13
     number of atomic types    =            2
     number of electrons       =       198.00
     number of Kohn-Sham states=          109
     kinetic-energy cutoff     =      36.7493  Ry
     charge density cutoff     =     367.4932  Ry
     convergence threshold     =      1.0E-05
     mixing beta               =       0.3000
     number of iterations used =           10  plain     mixing
     Exchange-correlation      = BEEF-VDW ( 1  4 27 13 2)
     nstep                     =           50

     celldm(1)=   1.889726  celldm(2)=   0.000000  celldm(3)=   0.000000
     celldm(4)=   0.000000  celldm(5)=   0.000000  celldm(6)=   0.000000

     crystal axes: (cart. coord. in units of alat)
               a(1) = (   5.440665   0.000000   0.000000 )
               a(2) = (   2.720332   4.711754   0.000000 )
               a(3) = (   0.000000   0.000000  24.442284 )

     reciprocal axes: (cart. coord. in units 2 pi/alat)
               b(1) = (  0.183801 -0.106118  0.000000 )
               b(2) = (  0.000000  0.212235  0.000000 )
               b(3) = (  0.000000  0.000000  0.040913 )

     PseudoPot. # 1 for Os read from file:
     /afs/slac.stanford.edu/u/if/mamunm/psp/gbrv1.5pbe/Os.UPF
     MD5 check sum: a3fb40a04f0c37c25c34bbc47164c9a8
     Pseudo is Ultrasoft + core correction, Zval = 16.0
     Generated by new atomic code, or converted to UPF format
     Using radial grid of  983 points,  8 beta functions with:
                l(1) =   0
                l(2) =   0
                l(3) =   1
                l(4) =   1
                l(5) =   2
                l(6) =   2
                l(7) =   3
                l(8) =   3
     Q(r) pseudized with  8 coefficients,  rinner =    1.150   1.150   1.150
                                                       1.150   1.150   1.150
                                                       1.150

     PseudoPot. # 2 for O  read from file:
     /afs/slac.stanford.edu/u/if/mamunm/psp/gbrv1.5pbe/O.UPF
     MD5 check sum: 734c27235a0248c51dbae37a1fbe46ec
     Pseudo is Ultrasoft + core correction, Zval =  6.0
     Generated by new atomic code, or converted to UPF format
     Using radial grid of  737 points,  5 beta functions with:
                l(1) =   0
                l(2) =   0
                l(3) =   1
                l(4) =   1
                l(5) =   2
     Q(r) pseudized with  8 coefficients,  rinner =    0.900   0.900   0.900
                                                       0.900   0.900

     vdW kernel table read from file vdW_kernel_table
     MD5 check sum: 095c7af220d748ca6e76c0b4c6cfb241

     atomic species   valence    mass     pseudopotential
        Os1           16.00   190.23000     Os( 1.00)
        O1             6.00    15.99900     O ( 1.00)

     No symmetry found

   Cartesian axes

     site n.     atom                  positions (alat units)
         1           Os1 tau(   1) = (   1.3601662   0.7852923  10.0000000  )
         2           Os1 tau(   2) = (   4.0804987   0.7852923  10.0000000  )
         3           Os1 tau(   3) = (   2.7203325   3.1411694  10.0000000  )
         4           Os1 tau(   4) = (   5.4406649   3.1411694  10.0000000  )
         5           Os1 tau(   5) = (   5.4406649   1.5705847  12.2211422  )
         6           Os1 tau(   6) = (   2.7203325   1.5705847  12.2211422  )
         7           Os1 tau(   7) = (   6.8008312   3.9264617  12.2211422  )
         8           Os1 tau(   8) = (   4.0804987   3.9264617  12.2211422  )
         9           Os1 tau(   9) = (   0.0000000   0.0000000  14.4422843  )
        10           Os1 tau(  10) = (   2.7203325   0.0000000  14.4422843  )
        11           Os1 tau(  11) = (   1.3601662   2.3558770  14.4422843  )
        12           Os1 tau(  12) = (   4.0804987   2.3558770  14.4422843  )
        13           O1  tau(  13) = (   1.3601662   0.7852923  16.5422843  )

     number of k points=    20  Fermi-Dirac smearing, width (Ry)=  0.0110
                       cart. coord. in units 2pi/alat
        k(    1) = (   0.0000000   0.0000000   0.0000000), wk =   0.0555556
        k(    2) = (   0.0000000   0.0353725   0.0000000), wk =   0.1111111
        k(    3) = (   0.0000000   0.0707451   0.0000000), wk =   0.1111111
        k(    4) = (   0.0000000  -0.1061176   0.0000000), wk =   0.0555556
        k(    5) = (   0.0306335  -0.0176863   0.0000000), wk =   0.1111111
        k(    6) = (   0.0306335   0.0176863   0.0000000), wk =   0.1111111
        k(    7) = (   0.0306335   0.0530588   0.0000000), wk =   0.1111111
        k(    8) = (   0.0306335  -0.1238039   0.0000000), wk =   0.1111111
        k(    9) = (   0.0306335  -0.0884313   0.0000000), wk =   0.1111111
        k(   10) = (   0.0306335  -0.0530588   0.0000000), wk =   0.1111111
        k(   11) = (   0.0612670  -0.0353725   0.0000000), wk =   0.1111111
        k(   12) = (   0.0612670   0.0000000   0.0000000), wk =   0.1111111
        k(   13) = (   0.0612670   0.0353725   0.0000000), wk =   0.1111111
        k(   14) = (   0.0612670  -0.1414901   0.0000000), wk =   0.1111111
        k(   15) = (   0.0612670  -0.1061176   0.0000000), wk =   0.1111111
        k(   16) = (   0.0612670  -0.0707451   0.0000000), wk =   0.1111111
        k(   17) = (  -0.0919005   0.0530588   0.0000000), wk =   0.0555556
        k(   18) = (  -0.0919005   0.0884313   0.0000000), wk =   0.1111111
        k(   19) = (  -0.0919005   0.1238039   0.0000000), wk =   0.1111111
        k(   20) = (  -0.0919005  -0.0530588   0.0000000), wk =   0.0555556

     Largest allocated arrays     est. size (Mb)     dimensions
     Largest temporary arrays     est. size (Mb)     dimensions

     Initial potential from superposition of free atoms
     Check: negative starting charge=   -1.495950

     starting charge  191.99956, renormalised to  198.00000

     negative rho (up, down):  1.543E+00 0.000E+00

     *
     * You are using vdW-DF for exchange-correlation in this calculation.
     * Please cite the following three references that made this development
     * possible:
     *
     *   M. Dion, H. Rydberg, E. Schroder, D. C. Langreth, and
     *   B. I. Lundqvist, Phys. Rev. Lett. 92, 246401 (2004).
     *
     *   T. Thonhauser, V. R. Cooper, S. Li, A. Puzder, P. Hyldgaard, and
     *   D. C. Langreth, Phys. Rev. B 76, 125112 (2007).
     *
     *   G. Roman-Perez and J. M. Soler, Phys. Rev. Lett. 103, 096102 (2009).
     *
     *
     * If you are using vdW-DF2, please also cite:
     *
     *   K. Lee, E. D. Murray, L. Kong, B. I. Lundqvist, and
     *   D. C. Langreth, Phys. Rev. B 82, 081101(R) (2010).
     *
     *
     * If you are calculating the stress with vdW-DF, please also cite:
     *
     *   R. Sabatini, E. Kucukbenli, B. Kolb, T. Thonhauser, and
     *   S. de Gironcoli, J. Phys.: Condens. Matter 24, 424209 (2012).
     *

     Carrying out vdW-DF run using the following parameters:

     Nqs =      20    Nr_points =    1024   r_max =   100.000
     q_mesh =
               0.00001000     0.04494208     0.09755937     0.15916263
               0.23128650     0.31572767     0.41458969     0.53033537
               0.66584808     0.82450364     1.01025438     1.22772762
               1.48234092     1.78043706     2.12944203     2.53805004
               3.01644009     3.57652955     4.23227104     5.00000000

     Gradients computed in reciprocal space

     Adding external electric field

     Computed dipole along edir(3) :
        Dipole               -1.5312 Ry au,         -3.8919 Debye
        Dipole field         -0.0046 Ry au

        Potential amp.        0.4099 Ry
        Total length         45.0345 bohr

     Starting wfc are  160 randomized atomic wfcs

     Self-consistent Calculation

     iteration #  1     ecut=    36.75 Ry     beta=0.30
     Davidson diagonalization with overlap
     ethr =  1.00E-02,  avg # of iterations =  2.0

[...]

     total energy              =   -2396.71287629 Ry
     Harris-Foulkes estimate   =   -2430.03636098 Ry
     estimated scf accuracy    <      68.65757783 Ry

[...]

     End of self-consistent calculation

          k = 0.0000 0.0000 0.0000 ( 15845 PWs)   bands (ev):

   -84.7713 -84.7213 -84.7208 -84.5889 -84.3664 -84.3202 -84.3196 -84.2386
   -84.1817 -84.1816 -84.1764 -84.1480 -44.4432 -44.3998 -44.3996 -44.2519
   -44.1410 -44.1407 -44.1154 -43.9197 -43.8829 -43.8827 -43.8376 -43.8052
   -43.8049 -43.7378 -43.7377 -43.7070 -43.6119 -43.6118 -43.6112 -43.5474
   -43.5469 -43.4489 -43.4024 -43.4023 -43.3910 -43.3821 -43.3682 -43.3642
   -43.3637 -43.2771 -43.2771 -43.2748 -43.1593 -43.1591 -43.1004 -43.1004
   -13.5607  -7.3205  -5.3153  -4.9121  -4.5869  -4.5680  -4.5679  -4.2550
    -4.2392  -4.2392  -3.6717  -3.6446  -3.6446  -3.3825  -3.3617  -3.3616
    -1.8708  -1.8099  -1.8098  -1.0190  -1.0139  -1.0139  -0.7636  -0.6185
    -0.5386  -0.5386  -0.0438  -0.0438  -0.0088  -0.0086  -0.0085   0.2306
     0.2453   0.2455   0.3151   0.3151   0.6810   1.0659   1.0659   1.6847
     1.9908   1.9908   2.0435   2.1803   2.1804   2.3237   2.3237   2.3732
     3.0520   3.0520   3.2871   3.7002   3.7052   3.7052   3.9396   3.9397
     3.9471   4.1335   4.1336   4.2237   4.2237

[...]

          k =-0.0919 0.0531 0.0000 ( 15968 PWs)   bands (ev):

[...]

     the Fermi energy is     2.3341 ev

!    total energy              =   -2429.70166855 Ry
     Harris-Foulkes estimate   =   -2429.70162744 Ry
     estimated scf accuracy    <       0.00000396 Ry

     The total energy is the sum of the following terms:

     one-electron contribution =  -21876.78848132 Ry
     hartree contribution      =   10919.93509764 Ry
     xc contribution           =    -471.52723146 Ry
     ewald contribution        =    8998.74882867 Ry
     electric field correction =       0.00085025 Ry
     smearing contrib. (-TS)   =      -0.07073233 Ry

     convergence has been achieved in  21 iterations

 BEEF-vdW xc energy contributions
           1 :   -412.929654887144
           2 :    382.282067146859
           3 :   -328.337106891271
           4 :    262.989512918497
           5 :   -198.869465108320
           6 :    145.935349458493
           7 :   -109.322867287594
           8 :    88.8892976309129
           9 :   -80.4087502891305
          10 :    77.8063921119287
          11 :   -75.5292774841726
[...]

[...]

     Program PWSCF v.5.1rc2 (svn rev. 11289) starts on 17Jan2018 at 17: 4:51

[...]

   This run was terminated on:  17:50: 7  17Jan2018

[...]

     Total force =     0.092757     Total SCF correction =     0.018725
     SCF correction compared to forces is large: reduce conv_thr to get better values

[...]

   This run was terminated on:  17:56:35  17Jan2018

[...]

     Program PWSCF v.5.1rc2 (svn rev. 11289) starts on 17Jan2018 at 17:56:40

     Current dimensions of program PWSCF are:
     Max number of different atomic species (ntypx) = 10
     Max number of k-points (npk) =  40000
     Max angular momentum in pseudopotentials (lmaxx) =  3
     Presently stress not available with electric field

     IMPORTANT: XC functional enforced from input :
     Exchange-correlation      = BEEF-VDW ( 1  4 27 13 2)
     Any further DFT definition will be discarded
     Please, verify this is what you really want

     Subspace diagonalization in iterative solution of the eigenvalue problem:
     a serial algorithm will be used

     bravais-lattice index     =            0
     lattice parameter (alat)  =       1.8897  a.u.
     unit-cell volume          =    4228.3700 (a.u.)^3
     number of atoms/cell      =           13
     number of atomic types    =            2
     number of electrons       =       198.00
     number of Kohn-Sham states=          109
     kinetic-energy cutoff     =      36.7493  Ry
     charge density cutoff     =     367.4932  Ry
     convergence threshold     =      1.0E-05
     mixing beta               =       0.3000
     number of iterations used =           10  plain     mixing
     Exchange-correlation      = BEEF-VDW ( 1  4 27 13 2)
     nstep                     =           50

     celldm(1)=   1.889726  celldm(2)=   0.000000  celldm(3)=   0.000000
     celldm(4)=   0.000000  celldm(5)=   0.000000  celldm(6)=   0.000000

     crystal axes: (cart. coord. in units of alat)
               a(1) = (   5.440665   0.000000   0.000000 )
               a(2) = (   2.720332   4.711754   0.000000 )
               a(3) = (   0.000000   0.000000  24.442284 )

     reciprocal axes: (cart. coord. in units 2 pi/alat)
               b(1) = (  0.183801 -0.106118  0.000000 )
               b(2) = (  0.000000  0.212235  0.000000 )
               b(3) = (  0.000000  0.000000  0.040913 )

     PseudoPot. # 1 for Os read from file:
     /afs/slac.stanford.edu/u/if/mamunm/psp/gbrv1.5pbe/Os.UPF
     MD5 check sum: a3fb40a04f0c37c25c34bbc47164c9a8
     Pseudo is Ultrasoft + core correction, Zval = 16.0
     Generated by new atomic code, or converted to UPF format
     Using radial grid of  983 points,  8 beta functions with:
                l(1) =   0
                l(2) =   0
                l(3) =   1
                l(4) =   1
                l(5) =   2
                l(6) =   2
                l(7) =   3
                l(8) =   3
     Q(r) pseudized with  8 coefficients,  rinner =    1.150   1.150   1.150
                                                       1.150   1.150   1.150
                                                       1.150

     PseudoPot. # 2 for O  read from file:
     /afs/slac.stanford.edu/u/if/mamunm/psp/gbrv1.5pbe/O.UPF
     MD5 check sum: 734c27235a0248c51dbae37a1fbe46ec
     Pseudo is Ultrasoft + core correction, Zval =  6.0
     Generated by new atomic code, or converted to UPF format
     Using radial grid of  737 points,  5 beta functions with:
                l(1) =   0
                l(2) =   0
                l(3) =   1
                l(4) =   1
                l(5) =   2
     Q(r) pseudized with  8 coefficients,  rinner =    0.900   0.900   0.900
                                                       0.900   0.900

     vdW kernel table read from file vdW_kernel_table
     MD5 check sum: 095c7af220d748ca6e76c0b4c6cfb241

     atomic species   valence    mass     pseudopotential
        Os1           16.00   190.23000     Os( 1.00)
        O1             6.00    15.99900     O ( 1.00)

     No symmetry found

   Cartesian axes

     site n.     atom                  positions (alat units)
         1           Os1 tau(   1) = (   1.3601662   0.7852923  10.0000000  )
         2           Os1 tau(   2) = (   4.0804987   0.7852923  10.0000000  )
         3           Os1 tau(   3) = (   2.7203325   3.1411694  10.0000000  )
         4           Os1 tau(   4) = (   5.4406649   3.1411694  10.0000000  )
         5           Os1 tau(   5) = (   5.4406649   1.5705847  12.2211422  )
         6           Os1 tau(   6) = (   2.7203325   1.5705847  12.2211422  )
         7           Os1 tau(   7) = (   6.8008312   3.9264617  12.2211422  )
         8           Os1 tau(   8) = (   4.0804987   3.9264617  12.2211422  )
         9           Os1 tau(   9) = (   8.0858365   4.6684649  14.4258285  )
        10           Os1 tau(  10) = (   5.5152520   4.6684705  14.4259662  )
        11           Os1 tau(  11) = (   6.8005612   2.4421724  14.4259231  )
        12           Os1 tau(  12) = (   4.0806782   2.3558616  14.3463768  )
        13           O1  tau(  13) = (   1.3600888   0.7852229  15.6589720  )

     number of k points=    20  Fermi-Dirac smearing, width (Ry)=  0.0110
                       cart. coord. in units 2pi/alat
        k(    1) = (   0.0000000   0.0000000   0.0000000), wk =   0.0555556
        k(    2) = (   0.0000000   0.0353725   0.0000000), wk =   0.1111111
        k(    3) = (   0.0000000   0.0707451   0.0000000), wk =   0.1111111
        k(    4) = (   0.0000000  -0.1061176   0.0000000), wk =   0.0555556
        k(    5) = (   0.0306335  -0.0176863   0.0000000), wk =   0.1111111
        k(    6) = (   0.0306335   0.0176863   0.0000000), wk =   0.1111111
        k(    7) = (   0.0306335   0.0530588   0.0000000), wk =   0.1111111
        k(    8) = (   0.0306335  -0.1238039   0.0000000), wk =   0.1111111
        k(    9) = (   0.0306335  -0.0884313   0.0000000), wk =   0.1111111
        k(   10) = (   0.0306335  -0.0530588   0.0000000), wk =   0.1111111
        k(   11) = (   0.0612670  -0.0353725   0.0000000), wk =   0.1111111
        k(   12) = (   0.0612670   0.0000000   0.0000000), wk =   0.1111111
        k(   13) = (   0.0612670   0.0353725   0.0000000), wk =   0.1111111
        k(   14) = (   0.0612670  -0.1414901   0.0000000), wk =   0.1111111
        k(   15) = (   0.0612670  -0.1061176   0.0000000), wk =   0.1111111
        k(   16) = (   0.0612670  -0.0707451   0.0000000), wk =   0.1111111
        k(   17) = (  -0.0919005   0.0530588   0.0000000), wk =   0.0555556
        k(   18) = (  -0.0919005   0.0884313   0.0000000), wk =   0.1111111
        k(   19) = (  -0.0919005   0.1238039   0.0000000), wk =   0.1111111
        k(   20) = (  -0.0919005  -0.0530588   0.0000000), wk =   0.0555556

     Largest allocated arrays     est. size (Mb)     dimensions
     Largest temporary arrays     est. size (Mb)     dimensions

     Initial potential from superposition of free atoms
     Check: negative starting charge=   -1.487717

     starting charge  191.99956, renormalised to  198.00000

[...]

     *
     * You are using vdW-DF for exchange-correlation in this calculation.
     * Please cite the following three references that made this development
     * possible:
     *
     *   M. Dion, H. Rydberg, E. Schroder, D. C. Langreth, and
     *   B. I. Lundqvist, Phys. Rev. Lett. 92, 246401 (2004).
     *
     *   T. Thonhauser, V. R. Cooper, S. Li, A. Puzder, P. Hyldgaard, and
     *   D. C. Langreth, Phys. Rev. B 76, 125112 (2007).
     *
     *   G. Roman-Perez and J. M. Soler, Phys. Rev. Lett. 103, 096102 (2009).
     *
     *
     * If you are using vdW-DF2, please also cite:
     *
     *   K. Lee, E. D. Murray, L. Kong, B. I. Lundqvist, and
     *   D. C. Langreth, Phys. Rev. B 82, 081101(R) (2010).
     *
     *
     * If you are calculating the stress with vdW-DF, please also cite:
     *
     *   R. Sabatini, E. Kucukbenli, B. Kolb, T. Thonhauser, and
     *   S. de Gironcoli, J. Phys.: Condens. Matter 24, 424209 (2012).
     *

     Carrying out vdW-DF run using the following parameters:

     Nqs =      20    Nr_points =    1024   r_max =   100.000
     q_mesh =
               0.00001000     0.04494208     0.09755937     0.15916263
               0.23128650     0.31572767     0.41458969     0.53033537
               0.66584808     0.82450364     1.01025438     1.22772762
               1.48234092     1.78043706     2.12944203     2.53805004
               3.01644009     3.57652955     4.23227104     5.00000000

     Gradients computed in reciprocal space

[...]

     Starting wfc are  160 randomized atomic wfcs

     Self-consistent Calculation

[...]

     total energy              =   -2429.87699145 Ry
     Harris-Foulkes estimate   =   -2429.87699263 Ry
     estimated scf accuracy    <       0.00001359 Ry

     iteration # 21     ecut=    36.75 Ry     beta=0.30
     Davidson diagonalization with overlap
     ethr =  6.87E-09,  avg # of iterations =  1.2

[...]

     negative rho (up, down):  1.508E+00 0.000E+00

     Adding external electric field

     Computed dipole along edir(3) :
        Dipole               -0.0426 Ry au,         -0.1082 Debye
        Dipole field         -0.0001 Ry au

        Potential amp.        0.0114 Ry
        Total length         45.0345 bohr

     End of self-consistent calculation

[...]

          k = 0.0613-0.0707 0.0000 ( 15922 PWs)   bands (ev):

[...]

          k =-0.0919-0.0531 0.0000 ( 15968 PWs)   bands (ev):

   -83.9914 -83.9783 -83.9600 -83.8739 -83.8369 -83.8076 -83.7989 -83.4796
   -83.4702 -83.4504 -83.4214 -83.3613 -43.6896 -43.5541 -43.5291 -43.4524
   -43.4380 -43.3646 -43.3503 -43.3290 -43.3032 -43.2751 -43.2113 -43.1865
   -43.1452 -43.0588 -43.0257 -42.9944 -42.9715 -42.9428 -42.9268 -42.9083
   -42.8885 -42.8676 -42.7834 -42.7371 -42.7265 -42.7028 -42.6874 -42.6768
   -42.6706 -42.6697 -42.6555 -42.5953 -42.5891 -42.4804 -42.4510 -42.4373
   -16.3710  -4.8983  -4.6580  -3.7794  -3.2607  -3.1161  -3.0216  -2.7899
    -2.6314  -2.6127  -2.6042  -2.5544  -2.2862  -1.9240  -1.8581  -1.8502
    -1.6663  -1.4310  -1.4187  -1.3376  -1.0554  -1.0224  -1.0198  -0.9489
    -0.6538  -0.5289  -0.1554  -0.0289   0.1431   0.1450   0.3811   0.4594
     0.5476   0.6235   0.7276   0.8341   0.8421   0.9202   0.9883   1.0032
     1.1235   1.3882   1.5967   1.8970   1.9906   2.0895   2.2352   2.2674
     2.4612   2.5380   2.6210   2.6521   3.1091   3.1402   3.3070   3.4697
     3.4897   3.6347   3.6545   3.8059   3.9782

     the Fermi energy is     3.1026 ev

!    total energy              =   -2429.87699138 Ry
     Harris-Foulkes estimate   =   -2429.87699159 Ry
     estimated scf accuracy    <       0.00000085 Ry

     The total energy is the sum of the following terms:

     one-electron contribution =  -22338.82700915 Ry
     hartree contribution      =   11154.63042813 Ry
     xc contribution           =    -472.13073631 Ry
     ewald contribution        =    9226.51602071 Ry
     electric field correction =       0.00000539 Ry
     smearing contrib. (-TS)   =      -0.06570016 Ry

     convergence has been achieved in  21 iterations

 BEEF-vdW xc energy contributions
           1 :   -413.554317589079
           2 :    383.123326272691
           3 :   -329.410682787089
           4 :    264.100588821430
           5 :   -199.741320740471
           6 :    146.353739943835
           7 :   -109.232458208758
           8 :    88.4130022584725
           9 :   -79.7908731560600
          10 :    77.3094079784729
          11 :   -75.3311800347200
          12 :    70.3467328566302
          13 :   -61.5720638929324
          14 :    50.4634564836241
          15 :   -39.5505198002595
          16 :    31.1317679985593
          17 :   -26.3408202087289
          18 :    24.8619317105566
          19 :   -25.2862656871570
          20 :    25.8503572089169
          21 :   -25.1977213953662
          22 :    22.8492208183547
          23 :   -19.2369505804110
          24 :    15.3517902255846
          25 :   -12.2146460573881
          26 :    10.4186570854632
          27 :   -9.92645665213422
          28 :    10.1737142291394
          29 :   -10.3944805304225
          30 :    9.99395822544670
          31 :   -39.2806711219504
          32 :   -29.9606130837948

     Forces acting on atoms (Ry/au):

     negative rho (up, down):  1.508E+00 0.000E+00
     atom    1 type  1   force =    -0.00000286    0.00000188    0.03097693
     atom    2 type  1   force =    -0.00000118    0.00362698    0.03331176
     atom    3 type  1   force =     0.00313162   -0.00182394    0.03341868
     atom    4 type  1   force =    -0.00315196   -0.00182986    0.03334456
     atom    5 type  1   force =    -0.00129930    0.00073096   -0.02559970
     atom    6 type  1   force =     0.00128009    0.00077886   -0.02563783
     atom    7 type  1   force =     0.00002223   -0.00003081   -0.05143089
     atom    8 type  1   force =    -0.00005299   -0.00152239   -0.02564410
     atom    9 type  1   force =     0.00024267    0.00009177   -0.00088194
     atom   10 type  1   force =    -0.00007408    0.00012944   -0.00093688
     atom   11 type  1   force =     0.00011039   -0.00011737   -0.00098734
     atom   12 type  1   force =    -0.00016458   -0.00002843   -0.00007697
     atom   13 type  2   force =    -0.00004006   -0.00000709    0.00014371

     Total force =     0.094670     Total SCF correction =     0.004473

     entering subroutine stress ...

     negative rho (up, down):  1.508E+00 0.000E+00
          total   stress  (Ry/bohr**3)                   (kbar)     P=  -20.40
  -0.00013247   0.00000002   0.00000004        -19.49      0.00      0.01
   0.00000002  -0.00013254   0.00000004          0.00    -19.50      0.01
   0.00000004   0.00000004  -0.00015109          0.01      0.01    -22.23

 !ASE

     Writing output data file calc.save

     General routines

     Parallel routines

   This run was terminated on:  18: 3:23  17Jan2018

   JOB DONE.
Job  /afs/slac/g/suncat/bin/suncat-tsmpirun -x LD_LIBRARY_PATH -wdir /scratch/qe842464_M73qc pw.x -in pw.inp

TID   HOST_NAME   COMMAND_LINE            STATUS            TERMINATION_TIME
00000 suncat2041 pw.x -in pw.inp   Done                     01/17/2018 18:03:23
00001 suncat2041 pw.x -in pw.inp   Done                     01/17/2018 18:03:23
00002 suncat2041 pw.x -in pw.inp   Done                     01/17/2018 18:03:23
00003 suncat2041 pw.x -in pw.inp   Done                     01/17/2018 18:03:23
00004 suncat2041 pw.x -in pw.inp   Done                     01/17/2018 18:03:23
00005 suncat2041 pw.x -in pw.inp   Done                     01/17/2018 18:03:23
00006 suncat2041 pw.x -in pw.inp   Done                     01/17/2018 18:03:23
00007 suncat2041 pw.x -in pw.inp   Done                     01/17/2018 18:03:23
00008 suncat2041 pw.x -in pw.inp   Done                     01/17/2018 18:03:23
00009 suncat2041 pw.x -in pw.inp   Done                     01/17/2018 18:03:23
00010 suncat2041 pw.x -in pw.inp   Done                     01/17/2018 18:03:23
00011 suncat2041 pw.x -in pw.inp   Done                     01/17/2018 18:03:23
00012 suncat2041 pw.x -in pw.inp   Done                     01/17/2018 18:03:23
00013 suncat2041 pw.x -in pw.inp   Done                     01/17/2018 18:03:23
00014 suncat2041 pw.x -in pw.inp   Done                     01/17/2018 18:03:23
00015 suncat2041 pw.x -in pw.inp   Done                     01/17/2018 18:03:23
00016 suncat2040 pw.x -in pw.inp   Done                     01/17/2018 18:03:23
00017 suncat2040 pw.x -in pw.inp   Done                     01/17/2018 18:03:23
00018 suncat2040 pw.x -in pw.inp   Done                     01/17/2018 18:03:23
00019 suncat2040 pw.x -in pw.inp   Done                     01/17/2018 18:03:23
00020 suncat2040 pw.x -in pw.inp   Done                     01/17/2018 18:03:23
00021 suncat2040 pw.x -in pw.inp   Done                     01/17/2018 18:03:23
00022 suncat2040 pw.x -in pw.inp   Done                     01/17/2018 18:03:23
00023 suncat2040 pw.x -in pw.inp   Done                     01/17/2018 18:03:23
00024 suncat2040 pw.x -in pw.inp   Done                     01/17/2018 18:03:23
00025 suncat2040 pw.x -in pw.inp   Done                     01/17/2018 18:03:23
00026 suncat2040 pw.x -in pw.inp   Done                     01/17/2018 18:03:23
00027 suncat2040 pw.x -in pw.inp   Done                     01/17/2018 18:03:23
00028 suncat2040 pw.x -in pw.inp   Done                     01/17/2018 18:03:23
00029 suncat2040 pw.x -in pw.inp   Done                     01/17/2018 18:03:23
00030 suncat2040 pw.x -in pw.inp   Done                     01/17/2018 18:03:23
00031 suncat2040 pw.x -in pw.inp   Done                     01/17/2018 18:03:23