     Program PWSCF v.5.1rc2 (svn rev. 11289) starts on  3May2018 at  6:54:13

     Current dimensions of program PWSCF are:
     Max number of different atomic species (ntypx) = 10
     Max number of k-points (npk) =  40000
     Max angular momentum in pseudopotentials (lmaxx) =  3
     Presently stress not available with electric field

     IMPORTANT: XC functional enforced from input :
     Exchange-correlation      = BEEF-VDW ( 1  4 27 13 2)
     Any further DFT definition will be discarded
     Please, verify this is what you really want

     Subspace diagonalization in iterative solution of the eigenvalue problem:
     a serial algorithm will be used

     bravais-lattice index     =            0
     lattice parameter (alat)  =       1.8897  a.u.
     unit-cell volume          =    5185.0501 (a.u.)^3
     number of atoms/cell      =           13
     number of atomic types    =            2
     number of electrons       =       161.00
     number of Kohn-Sham states=           90
     kinetic-energy cutoff     =      36.7493  Ry
     charge density cutoff     =     367.4932  Ry
     convergence threshold     =      1.0E-05
     mixing beta               =       0.3000
     number of iterations used =           10  plain     mixing
     Exchange-correlation      = BEEF-VDW ( 1  4 27 13 2)
     nstep                     =           50

     celldm(1)=   1.889726  celldm(2)=   0.000000  celldm(3)=   0.000000
     celldm(4)=   0.000000  celldm(5)=   0.000000  celldm(6)=   0.000000

     crystal axes: (cart. coord. in units of alat)
               a(1) = (   5.972022   0.000000   0.000000 )
               a(2) = (   2.986011   5.171923   0.000000 )
               a(3) = (   0.000000   0.000000  24.876136 )

     reciprocal axes: (cart. coord. in units 2 pi/alat)
               b(1) = (  0.167447 -0.096676  0.000000 )
               b(2) = (  0.000000  0.193352  0.000000 )
               b(3) = (  0.000000  0.000000  0.040199 )

     PseudoPot. # 1 for Ta read from file:
     /u/if/mamunm/psp/gbrv1.5pbe/Ta.UPF
     MD5 check sum: f8bbe9446314a3b8ea5d9f3e3836c939
     Pseudo is Ultrasoft + core correction, Zval = 13.0
     Generated by new atomic code, or converted to UPF format
     Using radial grid of  921 points,  7 beta functions with:
                l(1) =   0
                l(2) =   0
                l(3) =   1
                l(4) =   1
                l(5) =   2
                l(6) =   2
                l(7) =   3
     Q(r) pseudized with  6 coefficients,  rinner =    1.300   1.300   1.300
                                                       1.300   1.300   1.300
                                                       1.300

     PseudoPot. # 2 for N  read from file:
     /u/if/mamunm/psp/gbrv1.5pbe/N.UPF
     MD5 check sum: 95339753478d7afb44899504a8723017
     Pseudo is Ultrasoft + core correction, Zval =  5.0
     Generated by new atomic code, or converted to UPF format
     Using radial grid of  729 points,  4 beta functions with:
                l(1) =   0
                l(2) =   0
                l(3) =   1
                l(4) =   1
     Q(r) pseudized with  8 coefficients,  rinner =    0.900   0.900   0.900

     vdW kernel table read from file vdW_kernel_table
     MD5 check sum: 095c7af220d748ca6e76c0b4c6cfb241

     atomic species   valence    mass     pseudopotential
        Ta1           13.00   180.94788     Ta( 1.00)
        N1             5.00    14.00700     N ( 1.00)

     No symmetry found

   Cartesian axes

     site n.     atom                  positions (alat units)
         1           Ta1 tau(   1) = (   1.4930055   0.8619871  10.0000000  )
         2           Ta1 tau(   2) = (   4.4790165   0.8619871  10.0000000  )
         3           Ta1 tau(   3) = (   2.9860110   3.4479485  10.0000000  )
         4           Ta1 tau(   4) = (   5.9720221   3.4479485  10.0000000  )
         5           Ta1 tau(   5) = (   5.9720221   1.7239743  12.4380678  )
         6           Ta1 tau(   6) = (   2.9860110   1.7239743  12.4380678  )
         7           Ta1 tau(   7) = (   7.4650276   4.3099357  12.4380678  )
         8           Ta1 tau(   8) = (   4.4790165   4.3099357  12.4380678  )
         9           Ta1 tau(   9) = (   0.0000000   0.0000000  14.8761356  )
        10           Ta1 tau(  10) = (   2.9860110   0.0000000  14.8761356  )
        11           Ta1 tau(  11) = (   1.4930055   2.5859614  14.8761356  )
        12           Ta1 tau(  12) = (   4.4790165   2.5859614  14.8761356  )
        13           N1  tau(  13) = (   0.0000000   0.0000000  16.9246356  )

     number of k points=    20  Fermi-Dirac smearing, width (Ry)=  0.0110
                       cart. coord. in units 2pi/alat
        k(    1) = (   0.0000000   0.0000000   0.0000000), wk =   0.0555556
        k(    2) = (   0.0000000   0.0322253   0.0000000), wk =   0.1111111
        k(    3) = (   0.0000000   0.0644506   0.0000000), wk =   0.1111111
        k(    4) = (   0.0000000  -0.0966758   0.0000000), wk =   0.0555556
        k(    5) = (   0.0279079  -0.0161126   0.0000000), wk =   0.1111111
        k(    6) = (   0.0279079   0.0161126   0.0000000), wk =   0.1111111
        k(    7) = (   0.0279079   0.0483379   0.0000000), wk =   0.1111111
        k(    8) = (   0.0279079  -0.1127885   0.0000000), wk =   0.1111111
        k(    9) = (   0.0279079  -0.0805632   0.0000000), wk =   0.1111111
        k(   10) = (   0.0279079  -0.0483379   0.0000000), wk =   0.1111111
        k(   11) = (   0.0558158  -0.0322253   0.0000000), wk =   0.1111111
        k(   12) = (   0.0558158   0.0000000   0.0000000), wk =   0.1111111
        k(   13) = (   0.0558158   0.0322253   0.0000000), wk =   0.1111111
        k(   14) = (   0.0558158  -0.1289011   0.0000000), wk =   0.1111111
        k(   15) = (   0.0558158  -0.0966758   0.0000000), wk =   0.1111111
        k(   16) = (   0.0558158  -0.0644506   0.0000000), wk =   0.1111111
        k(   17) = (  -0.0837237   0.0483379   0.0000000), wk =   0.0555556
        k(   18) = (  -0.0837237   0.0805632   0.0000000), wk =   0.1111111
        k(   19) = (  -0.0837237   0.1127885   0.0000000), wk =   0.1111111
        k(   20) = (  -0.0837237  -0.0483379   0.0000000), wk =   0.0555556

     Largest allocated arrays     est. size (Mb)     dimensions
     Largest temporary arrays     est. size (Mb)     dimensions

     Initial potential from superposition of free atoms
     Check: negative starting charge=   -1.121603

     starting charge  160.98665, renormalised to  161.00000

     negative rho (up, down):  1.122E+00 0.000E+00

     *
     * You are using vdW-DF for exchange-correlation in this calculation.
     * Please cite the following three references that made this development
     * possible:
     *
     *   M. Dion, H. Rydberg, E. Schroder, D. C. Langreth, and
     *   B. I. Lundqvist, Phys. Rev. Lett. 92, 246401 (2004).
     *
     *   T. Thonhauser, V. R. Cooper, S. Li, A. Puzder, P. Hyldgaard, and
     *   D. C. Langreth, Phys. Rev. B 76, 125112 (2007).
     *
     *   G. Roman-Perez and J. M. Soler, Phys. Rev. Lett. 103, 096102 (2009).
     *
     *
     * If you are using vdW-DF2, please also cite:
     *
     *   K. Lee, E. D. Murray, L. Kong, B. I. Lundqvist, and
     *   D. C. Langreth, Phys. Rev. B 82, 081101(R) (2010).
     *
     *
     * If you are calculating the stress with vdW-DF, please also cite:
     *
     *   R. Sabatini, E. Kucukbenli, B. Kolb, T. Thonhauser, and
     *   S. de Gironcoli, J. Phys.: Condens. Matter 24, 424209 (2012).
     *

     Carrying out vdW-DF run using the following parameters:

     Nqs =      20    Nr_points =    1024   r_max =   100.000
     q_mesh =
               0.00001000     0.04494208     0.09755937     0.15916263
               0.23128650     0.31572767     0.41458969     0.53033537
               0.66584808     0.82450364     1.01025438     1.22772762
               1.48234092     1.78043706     2.12944203     2.53805004
               3.01644009     3.57652955     4.23227104     5.00000000

     Gradients computed in reciprocal space

     Adding external electric field

     Computed dipole along edir(3) :
        Dipole               -0.0034 Ry au,         -0.0087 Debye
        Dipole field         -0.0000 Ry au

        Potential amp.        0.0008 Ry
        Total length         45.8339 bohr

     Starting wfc are  160 randomized atomic wfcs

     Self-consistent Calculation

     iteration #  1     ecut=    36.75 Ry     beta=0.30
     Davidson diagonalization with overlap
     ethr =  1.00E-02,  avg # of iterations =  2.0

[...]

     total energy              =   -1736.14277709 Ry
     Harris-Foulkes estimate   =   -1738.90493106 Ry
     estimated scf accuracy    <       6.03047855 Ry

[...]

     End of self-consistent calculation

          k = 0.0000 0.0000 0.0000 ( 19447 PWs)   bands (ev):

   -66.9644 -66.9213 -66.9212 -66.8187 -66.7619 -66.7596 -66.7588 -66.7209
   -66.6742 -66.6499 -66.6493 -66.3730 -33.5841 -33.5769 -33.5738 -33.5737
   -33.5307 -33.5306 -33.4846 -33.4651 -33.4647 -33.4614 -33.3185 -33.2705
   -33.2704 -33.1103 -33.1024 -33.1019 -33.0905 -32.9549 -32.9549 -32.9362
   -32.9179 -32.9023 -32.9022 -32.8820 -32.8816 -32.8741 -32.8033 -32.8033
   -32.7987 -32.7348 -32.7348 -32.6668 -32.6668 -32.6174 -32.6080 -32.6079
   -10.4781  -5.9416  -4.3227  -3.2977  -2.6048  -2.6048  -2.5964  -2.4159
    -2.4158  -2.3936  -1.7219  -1.7219  -1.7100  -1.4935  -1.4850  -1.4850
    -0.5628  -0.5626  -0.2879   0.0997   0.5327   0.5328   0.8967   1.0859
     1.2960   1.2960   1.3781   1.4702   1.6344   1.6345   1.8604   1.8604
     2.0586   2.1469   2.1469   2.2057   2.2433   2.2434   2.3194   2.3194
     2.4697   2.6458

[...]

          k =-0.0837 0.0483 0.0000 ( 19532 PWs)   bands (ev):

[...]

     the Fermi energy is     1.4929 ev

!    total energy              =   -1738.48105761 Ry
     Harris-Foulkes estimate   =   -1738.48102038 Ry
     estimated scf accuracy    <       0.00000944 Ry

     The total energy is the sum of the following terms:

     one-electron contribution =  -11602.75620725 Ry
     hartree contribution      =    5783.52269527 Ry
     xc contribution           =    -527.99455608 Ry
     ewald contribution        =    4608.85138476 Ry
     electric field correction =       0.00058777 Ry
     smearing contrib. (-TS)   =      -0.10496207 Ry

     convergence has been achieved in  15 iterations

 BEEF-vdW xc energy contributions
           1 :   -464.726580379073
           2 :    428.802572431388
           3 :   -366.169366717690
           4 :    291.375371119969
           5 :   -218.920990036183
           6 :    158.835043877656
           7 :   -114.732454455075
           8 :    84.6593460859059
           9 :   -63.8031737209978
          10 :    47.4899482939254
          11 :   -33.0944936926726
          12 :    20.2973966129282
          13 :   -10.0522538164239
          14 :    3.18030734000223
          15 :   0.519791747339013
          16 :   -2.26069519257447
          17 :    3.56177109360272
          18 :   -5.40466697690294
          19 :    7.78528903956880
          20 :   -9.90027332533418
          21 :    10.8011932821971
          22 :   -10.0819967667235
          23 :    8.17827548931535
          24 :   -6.12351365344693
          25 :    4.94546576780795
          26 :   -5.09374180705606
          27 :    6.23828753791474
          28 :   -7.52734174756915
          29 :    8.11862509178758
          30 :   -7.65300795367949
          31 :   -41.6104017845562
          32 :   -30.8463205441569

     Forces acting on atoms (Ry/au):

     negative rho (up, down):  1.176E+00 0.000E+00
     atom    1 type  1   force =    -0.00168928   -0.00099632    0.00163735
     atom    2 type  1   force =     0.00169710   -0.00097475    0.00161598
     atom    3 type  1   force =     0.00001940    0.00195369    0.00166468
     atom    4 type  1   force =    -0.00002010    0.00000764    0.00252482
     atom    5 type  1   force =     0.00001481    0.00912268   -0.00633038
     atom    6 type  1   force =    -0.00000961    0.00004957    0.01286571
     atom    7 type  1   force =    -0.00786172   -0.00458584   -0.00636594
     atom    8 type  1   force =     0.00784855   -0.00457134   -0.00636646
     atom    9 type  1   force =     0.00002646   -0.00002217    0.18083598
     atom   10 type  1   force =    -0.00002780    0.00132693   -0.00304333
     atom   11 type  1   force =     0.00117323   -0.00067319   -0.00302325
     atom   12 type  1   force =    -0.00117085   -0.00063892   -0.00304830
     atom   13 type  2   force =    -0.00000020    0.00000200   -0.17296685

     Total force =     0.250304     Total SCF correction =     0.007344

     entering subroutine stress ...

     negative rho (up, down):  1.176E+00 0.000E+00
          total   stress  (Ry/bohr**3)                   (kbar)     P=  -36.24
  -0.00027751   0.00000001  -0.00000000        -40.82      0.00     -0.00
   0.00000001  -0.00027751  -0.00000000          0.00    -40.82     -0.00
  -0.00000000  -0.00000000  -0.00018394         -0.00     -0.00    -27.06

     BFGS Geometry Optimization

     number of scf cycles    =   1
     number of bfgs steps    =   0

     energy   new            =   -1738.4810576119 Ry

     new trust radius        =       0.1808359803 bohr
     new conv_thr            =       0.0000099958 Ry

ATOMIC_POSITIONS (crystal)
Ta1      0.166666667   0.166666667   0.401991699    0   0   0
Ta1      0.666666667   0.166666667   0.401991699    0   0   0
Ta1      0.166666667   0.666666667   0.401991699    0   0   0
Ta1      0.666666667   0.666666667   0.401991699    0   0   0
Ta1      0.833333333   0.333333333   0.500000000    0   0   0
Ta1      0.333333333   0.333333333   0.500000000    0   0   0
Ta1      0.833333333   0.833333333   0.500000000    0   0   0
Ta1      0.333333333   0.833333333   0.500000000    0   0   0
Ta1      0.000003479  -0.000002268   0.601855132
Ta1      0.499929653   0.000135768   0.597943562
Ta1      0.000138399   0.499931121   0.597943989
Ta1      0.499928938   0.499934628   0.597943456
N1      -0.000000120   0.000000205   0.676676866

     Writing output data file calc.save
     Check: negative starting charge=   -1.121603
     NEW-OLD atomic charge density approx. for the potential
     Check: negative starting charge=   -1.121174

[...]

     energy   old            =   -1738.4810576119 Ry
     energy   new            =   -1738.5258208788 Ry

     CASE: energy  _new < energy  _old

[...]

     Threshold (ethr) on eigenvalues was too large:
     Diagonalizing with lowered threshold

     Davidson diagonalization with overlap
     ethr =  3.25E-08,  avg # of iterations =  2.1

[...]

     WARNING: bfgs curvature condition failed, Theta= 0.933
     new trust radius        =       0.0084869367 bohr
     new conv_thr            =       0.0000001000 Ry

[...]

     Threshold (ethr) on eigenvalues was too large:
     Diagonalizing with lowered threshold

     Davidson diagonalization with overlap
     ethr =  5.71E-08,  avg # of iterations =  1.6

[...]

     Total force =     0.005249     Total SCF correction =     0.000387

[...]

     number of scf cycles    =   8
     number of bfgs steps    =   7

     energy   old            =   -1738.5295926333 Ry
     energy   new            =   -1738.5298628798 Ry

     CASE: energy  _new < energy  _old

     new trust radius        =       0.0266578118 bohr
     new conv_thr            =       0.0000001000 Ry

ATOMIC_POSITIONS (crystal)
Ta1      0.166666667   0.166666667   0.401991699    0   0   0
Ta1      0.666666667   0.166666667   0.401991699    0   0   0
Ta1      0.166666667   0.666666667   0.401991699    0   0   0
Ta1      0.666666667   0.666666667   0.401991699    0   0   0
Ta1      0.833333333   0.333333333   0.500000000    0   0   0
Ta1      0.333333333   0.333333333   0.500000000    0   0   0
Ta1      0.833333333   0.833333333   0.500000000    0   0   0
Ta1      0.333333333   0.833333333   0.500000000    0   0   0
Ta1     -0.000000617   0.000000168   0.601519006
Ta1      0.498150245   0.003701455   0.596245810
Ta1      0.003702926   0.498147881   0.596246021
Ta1      0.498150356   0.498147089   0.596245590
N1      -0.000001103   0.000000993   0.674104356

     Writing output data file calc.save
     Check: negative starting charge=   -1.122079
     NEW-OLD atomic charge density approx. for the potential
     Check: negative starting charge=   -1.123359

[...]

     Self-consistent Calculation

[...]

     total energy              =   -1738.53001166 Ry
     Harris-Foulkes estimate   =   -1738.53001176 Ry
     estimated scf accuracy    <       0.00000017 Ry

     iteration # 11     ecut=    36.75 Ry     beta=0.30
     Davidson diagonalization with overlap
     ethr =  1.06E-10,  avg # of iterations =  3.0

[...]

     negative rho (up, down):  1.178E+00 0.000E+00

     Adding external electric field

     Computed dipole along edir(3) :
        Dipole               -0.4282 Ry au,         -1.0883 Debye
        Dipole field         -0.0010 Ry au

        Potential amp.        0.0951 Ry
        Total length         45.8339 bohr

     End of self-consistent calculation

[...]

          k = 0.0558-0.0645 0.0000 ( 19521 PWs)   bands (ev):

[...]

          k =-0.0837-0.0483 0.0000 ( 19532 PWs)   bands (ev):

   -66.8674 -66.8521 -66.8380 -66.7391 -66.7338 -66.7083 -66.7043 -66.6402
   -66.6371 -66.6149 -66.6116 -65.9354 -33.4540 -33.4231 -33.4103 -33.4075
   -33.3350 -33.3330 -33.2825 -33.2761 -33.2587 -33.2513 -33.2340 -33.1763
   -33.1265 -33.1180 -33.0910 -33.0598 -33.0543 -33.0424 -32.9786 -32.9644
   -32.9465 -32.9225 -32.9158 -32.8973 -32.8632 -32.8239 -32.8051 -32.7973
   -32.7760 -32.7706 -32.7684 -32.6832 -32.6742 -32.4721 -32.3953 -32.3201
   -10.5700  -4.1207  -4.0569  -2.7032  -2.5866  -1.8542  -1.8328  -1.6286
    -1.5795  -1.4720  -1.4501  -0.8871  -0.7988  -0.6468  -0.4540  -0.3852
    -0.2825  -0.2427  -0.2168  -0.0238   0.2031   0.2700   0.3142   0.3779
     0.4467   0.6268   0.7711   0.8572   0.9443   0.9712   1.0752   1.2281
     1.3093   1.3466   1.4261   1.4675   1.7970   1.8208   1.9651   2.1396
     2.2907   2.7061

     the Fermi energy is     1.5437 ev

!    total energy              =   -1738.53001165 Ry
     Harris-Foulkes estimate   =   -1738.53001287 Ry
     estimated scf accuracy    <       0.00000004 Ry

     The total energy is the sum of the following terms:

     one-electron contribution =  -11656.85885075 Ry
     hartree contribution      =    5810.91143852 Ry
     xc contribution           =    -528.26068012 Ry
     ewald contribution        =    4635.78211509 Ry
     electric field correction =       0.00044431 Ry
     smearing contrib. (-TS)   =      -0.10447870 Ry

     convergence has been achieved in  11 iterations

 BEEF-vdW xc energy contributions
           1 :   -464.989188253222
           2 :    429.108742725294
           3 :   -366.520803781549
           4 :    291.722311853148
           5 :   -219.188110330070
           6 :    158.962668434781
           7 :   -114.708608351689
           8 :    84.5248491957452
           9 :   -63.6291487449192
          10 :    47.3422378887537
          11 :   -33.0053976304567
          12 :    20.2586529732850
          13 :   -10.0291998309074
          14 :    3.13563698667178
          15 :   0.606607495981962
          16 :   -2.38714845237763
          17 :    3.70912987405643
          18 :   -5.55089607594857
          19 :    7.91603509220863
          20 :   -10.0128081537381
          21 :    10.9004047096766
          22 :   -10.1722734792320
          23 :    8.25814614390180
          24 :   -6.18717743367529
          25 :    4.98934586501247
          26 :   -5.12273907181429
          27 :    6.26646440655588
          28 :   -7.57182196055544
          29 :    8.19017960464549
          30 :   -7.74905158966101
          31 :   -41.6260646599845
          32 :   -30.8685423430127

     Forces acting on atoms (Ry/au):

     negative rho (up, down):  1.178E+00 0.000E+00
     atom    1 type  1   force =    -0.00317056   -0.00183049    0.00128764
     atom    2 type  1   force =     0.00317070   -0.00183056    0.00128917
     atom    3 type  1   force =     0.00000000    0.00366122    0.00128932
     atom    4 type  1   force =    -0.00000031   -0.00000002    0.00359396
     atom    5 type  1   force =     0.00000086    0.00802349   -0.00370244
     atom    6 type  1   force =    -0.00000123   -0.00000001    0.00540320
     atom    7 type  1   force =    -0.00694882   -0.00401227   -0.00370145
     atom    8 type  1   force =     0.00694834   -0.00401110   -0.00370163
     atom    9 type  1   force =     0.00000280   -0.00000212   -0.00118324
     atom   10 type  1   force =    -0.00000144   -0.00102563    0.00010421
     atom   11 type  1   force =    -0.00088705    0.00051266    0.00010372
     atom   12 type  1   force =     0.00088714    0.00051440    0.00010517
     atom   13 type  2   force =    -0.00000043    0.00000043   -0.00088761

     Total force =     0.002318     Total SCF correction =     0.000633
     SCF correction compared to forces is large: reduce conv_thr to get better values

     entering subroutine stress ...

     negative rho (up, down):  1.178E+00 0.000E+00
          total   stress  (Ry/bohr**3)                   (kbar)     P=  -26.87
  -0.00024499  -0.00000001   0.00000000        -36.04     -0.00      0.00
  -0.00000001  -0.00024498  -0.00000000         -0.00    -36.04     -0.00
   0.00000000  -0.00000000  -0.00005790          0.00     -0.00     -8.52

     bfgs converged in   9 scf cycles and   8 bfgs steps
     (criteria: energy <  1.0E+00, force <  1.9E-03)

     End of BFGS Geometry Optimization

     Final energy   =   -1738.5300116513 Ry
Begin final coordinates

ATOMIC_POSITIONS (crystal)
Ta1      0.166666667   0.166666667   0.401991699    0   0   0
Ta1      0.666666667   0.166666667   0.401991699    0   0   0
Ta1      0.166666667   0.666666667   0.401991699    0   0   0
Ta1      0.666666667   0.666666667   0.401991699    0   0   0
Ta1      0.833333333   0.333333333   0.500000000    0   0   0
Ta1      0.333333333   0.333333333   0.500000000    0   0   0
Ta1      0.833333333   0.833333333   0.500000000    0   0   0
Ta1      0.333333333   0.833333333   0.500000000    0   0   0
Ta1     -0.000000617   0.000000168   0.601519006
Ta1      0.498150245   0.003701455   0.596245810
Ta1      0.003702926   0.498147881   0.596246021
Ta1      0.498150356   0.498147089   0.596245590
N1      -0.000001103   0.000000993   0.674104356
End final coordinates

     Writing output data file calc.save

     General routines

     Parallel routines

   This run was terminated on:   8:18:14   3May2018

   JOB DONE.
Job  /afs/slac/g/suncat/bin/suncat-tsmpirun -x LD_LIBRARY_PATH -wdir /scratch/qe654447_XEDpe pw.x -npool 4 -in pw.inp

TID   HOST_NAME   COMMAND_LINE            STATUS            TERMINATION_TIME
00000 suncat0031 pw.x -npool 4 -i  Done                     05/03/2018 08:18:14
00001 suncat0031 pw.x -npool 4 -i  Done                     05/03/2018 08:18:14
00002 suncat0031 pw.x -npool 4 -i  Done                     05/03/2018 08:18:14
00003 suncat0031 pw.x -npool 4 -i  Done                     05/03/2018 08:18:14
00004 suncat0031 pw.x -npool 4 -i  Done                     05/03/2018 08:18:14
00005 suncat0031 pw.x -npool 4 -i  Done                     05/03/2018 08:18:14
00006 suncat0031 pw.x -npool 4 -i  Done                     05/03/2018 08:18:14
00007 suncat0031 pw.x -npool 4 -i  Done                     05/03/2018 08:18:14
00008 suncat0023 pw.x -npool 4 -i  Done                     05/03/2018 08:18:14
00009 suncat0023 pw.x -npool 4 -i  Done                     05/03/2018 08:18:14
00010 suncat0023 pw.x -npool 4 -i  Done                     05/03/2018 08:18:14
00011 suncat0023 pw.x -npool 4 -i  Done                     05/03/2018 08:18:14
00012 suncat0023 pw.x -npool 4 -i  Done                     05/03/2018 08:18:14
00013 suncat0023 pw.x -npool 4 -i  Done                     05/03/2018 08:18:14
00014 suncat0023 pw.x -npool 4 -i  Done                     05/03/2018 08:18:14
00015 suncat0023 pw.x -npool 4 -i  Done                     05/03/2018 08:18:14
00016 suncat0123 pw.x -npool 4 -i  Done                     05/03/2018 08:18:14
00017 suncat0123 pw.x -npool 4 -i  Done                     05/03/2018 08:18:14
00018 suncat0123 pw.x -npool 4 -i  Done                     05/03/2018 08:18:14
00019 suncat0123 pw.x -npool 4 -i  Done                     05/03/2018 08:18:14
00020 suncat0123 pw.x -npool 4 -i  Done                     05/03/2018 08:18:14
00021 suncat0123 pw.x -npool 4 -i  Done                     05/03/2018 08:18:14
00022 suncat0123 pw.x -npool 4 -i  Done                     05/03/2018 08:18:14
00023 suncat0123 pw.x -npool 4 -i  Done                     05/03/2018 08:18:14
00024 suncat0121 pw.x -npool 4 -i  Done                     05/03/2018 08:18:14
00025 suncat0121 pw.x -npool 4 -i  Done                     05/03/2018 08:18:14
00026 suncat0121 pw.x -npool 4 -i  Done                     05/03/2018 08:18:14
00027 suncat0121 pw.x -npool 4 -i  Done                     05/03/2018 08:18:14
00028 suncat0121 pw.x -npool 4 -i  Done                     05/03/2018 08:18:14
00029 suncat0121 pw.x -npool 4 -i  Done                     05/03/2018 08:18:14
00030 suncat0121 pw.x -npool 4 -i  Done                     05/03/2018 08:18:14
00031 suncat0121 pw.x -npool 4 -i  Done                     05/03/2018 08:18:14