     Program PWSCF v.5.1rc2 (svn rev. 11289) starts on  3May2018 at  9:48:51

     Current dimensions of program PWSCF are:
     Max number of different atomic species (ntypx) = 10
     Max number of k-points (npk) =  40000
     Max angular momentum in pseudopotentials (lmaxx) =  3
     Presently stress not available with electric field

     IMPORTANT: XC functional enforced from input :
     Exchange-correlation      = BEEF-VDW ( 1  4 27 13 2)
     Any further DFT definition will be discarded
     Please, verify this is what you really want

     Subspace diagonalization in iterative solution of the eigenvalue problem:
     a serial algorithm will be used

     bravais-lattice index     =            0
     lattice parameter (alat)  =       1.8897  a.u.
     unit-cell volume          =    5182.3421 (a.u.)^3
     number of atoms/cell      =           13
     number of atomic types    =            2
     number of electrons       =       162.00
     number of Kohn-Sham states=           91
     kinetic-energy cutoff     =      36.7493  Ry
     charge density cutoff     =     367.4932  Ry
     convergence threshold     =      1.0E-05
     mixing beta               =       0.3000
     number of iterations used =           10  plain     mixing
     Exchange-correlation      = BEEF-VDW ( 1  4 27 13 2)
     nstep                     =           50

     celldm(1)=   1.889726  celldm(2)=   0.000000  celldm(3)=   0.000000
     celldm(4)=   0.000000  celldm(5)=   0.000000  celldm(6)=   0.000000

     crystal axes: (cart. coord. in units of alat)
               a(1) = (   5.970602   0.000000   0.000000 )
               a(2) = (   2.985301   5.170693   0.000000 )
               a(3) = (   0.000000   0.000000  24.874976 )

     reciprocal axes: (cart. coord. in units 2 pi/alat)
               b(1) = (  0.167487 -0.096699  0.000000 )
               b(2) = (  0.000000  0.193398  0.000000 )
               b(3) = (  0.000000  0.000000  0.040201 )

     PseudoPot. # 1 for Nb read from file:
     /u/if/mamunm/psp/gbrv1.5pbe/Nb.UPF
     MD5 check sum: 573aab8a2fa660278ed4a62cd769473f
     Pseudo is Ultrasoft + core correction, Zval = 13.0
     Generated by new atomic code, or converted to UPF format
     Using radial grid of  887 points,  6 beta functions with:
                l(1) =   0
                l(2) =   0
                l(3) =   1
                l(4) =   1
                l(5) =   2
                l(6) =   2
     Q(r) pseudized with  6 coefficients,  rinner =    1.000   1.000   1.000
                                                       1.000   1.000

     PseudoPot. # 2 for S  read from file:
     /u/if/mamunm/psp/gbrv1.5pbe/S.UPF
     MD5 check sum: 88d86576ff6df21479756cfb9bdac1df
     Pseudo is Ultrasoft + core correction, Zval =  6.0
     Generated by new atomic code, or converted to UPF format
     Using radial grid of  907 points,  6 beta functions with:
                l(1) =   0
                l(2) =   0
                l(3) =   1
                l(4) =   1
                l(5) =   2
                l(6) =   2
     Q(r) pseudized with  8 coefficients,  rinner =    1.300   1.300   1.300
                                                       1.300   1.300

     vdW kernel table read from file vdW_kernel_table
     MD5 check sum: 095c7af220d748ca6e76c0b4c6cfb241

     atomic species   valence    mass     pseudopotential
        Nb1           13.00    92.90637     Nb( 1.00)
        S1             6.00    32.06000     S ( 1.00)

     No symmetry found

   Cartesian axes

     site n.     atom                  positions (alat units)
         1           Nb1 tau(   1) = (   1.4926504   0.8617821  10.0000000  )
         2           Nb1 tau(   2) = (   4.4779512   0.8617821  10.0000000  )
         3           Nb1 tau(   3) = (   2.9853008   3.4471284  10.0000000  )
         4           Nb1 tau(   4) = (   5.9706016   3.4471284  10.0000000  )
         5           Nb1 tau(   5) = (   5.9706016   1.7235642  12.4374879  )
         6           Nb1 tau(   6) = (   2.9853008   1.7235642  12.4374879  )
         7           Nb1 tau(   7) = (   7.4632520   4.3089105  12.4374879  )
         8           Nb1 tau(   8) = (   4.4779512   4.3089105  12.4374879  )
         9           Nb1 tau(   9) = (   0.0000000   0.0000000  14.8749758  )
        10           Nb1 tau(  10) = (   2.9853008   0.0000000  14.8749758  )
        11           Nb1 tau(  11) = (   1.4926504   2.5853463  14.8749758  )
        12           Nb1 tau(  12) = (   4.4779512   2.5853463  14.8749758  )
        13           S1  tau(  13) = (   2.9853008   1.7235642  16.6234758  )

     number of k points=    20  Fermi-Dirac smearing, width (Ry)=  0.0110
                       cart. coord. in units 2pi/alat
        k(    1) = (   0.0000000   0.0000000   0.0000000), wk =   0.0555556
        k(    2) = (   0.0000000   0.0322329   0.0000000), wk =   0.1111111
        k(    3) = (   0.0000000   0.0644659   0.0000000), wk =   0.1111111
        k(    4) = (   0.0000000  -0.0966988   0.0000000), wk =   0.0555556
        k(    5) = (   0.0279146  -0.0161165   0.0000000), wk =   0.1111111
        k(    6) = (   0.0279146   0.0161165   0.0000000), wk =   0.1111111
        k(    7) = (   0.0279146   0.0483494   0.0000000), wk =   0.1111111
        k(    8) = (   0.0279146  -0.1128153   0.0000000), wk =   0.1111111
        k(    9) = (   0.0279146  -0.0805824   0.0000000), wk =   0.1111111
        k(   10) = (   0.0279146  -0.0483494   0.0000000), wk =   0.1111111
        k(   11) = (   0.0558291  -0.0322329   0.0000000), wk =   0.1111111
        k(   12) = (   0.0558291   0.0000000   0.0000000), wk =   0.1111111
        k(   13) = (   0.0558291   0.0322329   0.0000000), wk =   0.1111111
        k(   14) = (   0.0558291  -0.1289318   0.0000000), wk =   0.1111111
        k(   15) = (   0.0558291  -0.0966988   0.0000000), wk =   0.1111111
        k(   16) = (   0.0558291  -0.0644659   0.0000000), wk =   0.1111111
        k(   17) = (  -0.0837437   0.0483494   0.0000000), wk =   0.0555556
        k(   18) = (  -0.0837437   0.0805824   0.0000000), wk =   0.1111111
        k(   19) = (  -0.0837437   0.1128153   0.0000000), wk =   0.1111111
        k(   20) = (  -0.0837437  -0.0483494   0.0000000), wk =   0.0555556

     Largest allocated arrays     est. size (Mb)     dimensions
     Largest temporary arrays     est. size (Mb)     dimensions

     Initial potential from superposition of free atoms
     Check: negative starting charge=   -0.005081

     starting charge  161.96717, renormalised to  162.00000

     negative rho (up, down):  5.082E-03 0.000E+00

     *
     * You are using vdW-DF for exchange-correlation in this calculation.
     * Please cite the following three references that made this development
     * possible:
     *
     *   M. Dion, H. Rydberg, E. Schroder, D. C. Langreth, and
     *   B. I. Lundqvist, Phys. Rev. Lett. 92, 246401 (2004).
     *
     *   T. Thonhauser, V. R. Cooper, S. Li, A. Puzder, P. Hyldgaard, and
     *   D. C. Langreth, Phys. Rev. B 76, 125112 (2007).
     *
     *   G. Roman-Perez and J. M. Soler, Phys. Rev. Lett. 103, 096102 (2009).
     *
     *
     * If you are using vdW-DF2, please also cite:
     *
     *   K. Lee, E. D. Murray, L. Kong, B. I. Lundqvist, and
     *   D. C. Langreth, Phys. Rev. B 82, 081101(R) (2010).
     *
     *
     * If you are calculating the stress with vdW-DF, please also cite:
     *
     *   R. Sabatini, E. Kucukbenli, B. Kolb, T. Thonhauser, and
     *   S. de Gironcoli, J. Phys.: Condens. Matter 24, 424209 (2012).
     *

     Carrying out vdW-DF run using the following parameters:

     Nqs =      20    Nr_points =    1024   r_max =   100.000
     q_mesh =
               0.00001000     0.04494208     0.09755937     0.15916263
               0.23128650     0.31572767     0.41458969     0.53033537
               0.66584808     0.82450364     1.01025438     1.22772762
               1.48234092     1.78043706     2.12944203     2.53805004
               3.01644009     3.57652955     4.23227104     5.00000000

     Gradients computed in reciprocal space

     Adding external electric field

     Computed dipole along edir(3) :
        Dipole               -0.0093 Ry au,         -0.0238 Debye
        Dipole field         -0.0000 Ry au

        Potential amp.        0.0021 Ry
        Total length         45.8317 bohr

     Starting wfc are  160 randomized atomic wfcs

     Self-consistent Calculation

     iteration #  1     ecut=    36.75 Ry     beta=0.30
     Davidson diagonalization with overlap
     ethr =  1.00E-02,  avg # of iterations =  2.0

[...]

     total energy              =   -1444.75737868 Ry
     Harris-Foulkes estimate   =   -1447.22000063 Ry
     estimated scf accuracy    <       5.45531980 Ry

[...]

     End of self-consistent calculation

          k = 0.0000 0.0000 0.0000 ( 19435 PWs)   bands (ev):

   -53.1281 -53.0816 -52.9967 -52.9714 -52.9702 -52.9701 -52.9509 -52.9509
   -52.9469 -52.8877 -52.8785 -52.8785 -29.5914 -29.5641 -29.5641 -29.5085
   -29.4967 -29.4967 -29.4943 -29.4508 -29.4421 -29.4421 -29.1805 -29.0643
   -29.0441 -29.0441 -28.9919 -28.9836 -28.9836 -28.8712 -28.8712 -28.8628
   -28.7923 -28.7923 -28.7835 -28.7658 -28.7517 -28.7517 -28.6930 -28.6779
   -28.6765 -28.6765 -28.6321 -28.6321 -28.5835 -28.5835 -28.5111 -28.5111
   -10.8531  -3.4538  -2.5130  -2.0569  -2.0569  -1.9721  -1.6606  -1.5249
    -1.5249  -1.3129  -1.0399  -0.9932  -0.9932  -0.8284  -0.8097  -0.8097
    -0.4748  -0.4748  -0.1714   0.5193   0.5194   0.8322   1.3855   1.4818
     1.4818   1.7519   1.9914   2.1194   2.1194   2.3337   2.3337   2.3555
     2.4314   2.4314   2.4591   2.4635   2.4916   2.4916   2.7324   2.7324
     3.1666   3.2827   3.2828

[...]

          k =-0.0837 0.0483 0.0000 ( 19524 PWs)   bands (ev):

[...]

     the Fermi energy is     2.0347 ev

!    total energy              =   -1446.75382494 Ry
     Harris-Foulkes estimate   =   -1446.75382074 Ry
     estimated scf accuracy    <       0.00000680 Ry

     The total energy is the sum of the following terms:

     one-electron contribution =  -11750.85040390 Ry
     hartree contribution      =    5870.23087915 Ry
     xc contribution           =    -237.14602239 Ry
     ewald contribution        =    4671.12942088 Ry
     electric field correction =       0.00004889 Ry
     smearing contrib. (-TS)   =      -0.11774756 Ry

     convergence has been achieved in  17 iterations

 BEEF-vdW xc energy contributions
           1 :   -203.270429241887
           2 :    184.669180512707
           3 :   -152.960480388635
           4 :    116.624455752196
           5 :   -83.8162078099888
           6 :    59.6779935037309
           7 :   -45.2485057271942
           8 :    38.0968074954828
           9 :   -34.1567437188357
          10 :    29.7774268192015
          11 :   -23.1180640151335
          12 :    14.4313231094783
          13 :   -5.36460131711488
          14 :   -2.21400711963025
          15 :    7.22677840265399
          16 :   -9.80507373918260
          17 :    11.0148177891186
          18 :   -12.1435127576723
          19 :    13.9705145087499
          20 :   -16.4096817337248
          21 :    18.6632647606239
          22 :   -19.7491586484387
          23 :    19.0755361532488
          24 :   -16.7571233640841
          25 :    13.5308798177575
          26 :   -10.3616502413422
          27 :    7.97484618897766
          28 :   -6.56821057375842
          29 :    5.82532227040781
          30 :   -5.19092127667815
          31 :   -23.4886077826248
          32 :   -17.7100301826700

     Forces acting on atoms (Ry/au):

     negative rho (up, down):  4.774E-03 0.000E+00
     atom    1 type  1   force =     0.00025370    0.00014445   -0.00254133
     atom    2 type  1   force =    -0.00025369    0.00014649   -0.00254161
     atom    3 type  1   force =    -0.00000029   -0.00029141   -0.00254356
     atom    4 type  1   force =    -0.00000061   -0.00000080   -0.00779419
     atom    5 type  1   force =     0.00000052   -0.00256388   -0.00443722
     atom    6 type  1   force =    -0.00000011    0.00000134   -0.00030934
     atom    7 type  1   force =     0.00222157    0.00128230   -0.00443731
     atom    8 type  1   force =    -0.00222070    0.00128181   -0.00443875
     atom    9 type  1   force =    -0.00000113   -0.00000122   -0.02203699
     atom   10 type  1   force =    -0.00000058   -0.02899452    0.01389213
     atom   11 type  1   force =    -0.02510964    0.01449851    0.01389428
     atom   12 type  1   force =     0.02511070    0.01449782    0.01389366
     atom   13 type  2   force =     0.00000026   -0.00000088    0.00940024

     Total force =     0.060623     Total SCF correction =     0.002009

     entering subroutine stress ...

     negative rho (up, down):  4.774E-03 0.000E+00
          total   stress  (Ry/bohr**3)                   (kbar)     P=  -16.07
  -0.00018666  -0.00000000  -0.00000000        -27.46     -0.00     -0.00
  -0.00000000  -0.00018666  -0.00000000         -0.00    -27.46     -0.00
  -0.00000000  -0.00000000   0.00004565         -0.00     -0.00      6.71

     BFGS Geometry Optimization

     number of scf cycles    =   1
     number of bfgs steps    =   0

     energy   new            =   -1446.7538249378 Ry

     new trust radius        =       0.0321522596 bohr
     new conv_thr            =       0.0000099958 Ry

ATOMIC_POSITIONS (crystal)
Nb1      0.166666667   0.166666667   0.402010442    0   0   0
Nb1      0.666666667   0.166666667   0.402010442    0   0   0
Nb1      0.166666667   0.666666667   0.402010442    0   0   0
Nb1      0.666666667   0.666666667   0.402010442    0   0   0
Nb1      0.833333333   0.333333333   0.500000000    0   0   0
Nb1      0.333333333   0.333333333   0.500000000    0   0   0
Nb1      0.833333333   0.833333333   0.500000000    0   0   0
Nb1      0.333333333   0.833333333   0.500000000    0   0   0
Nb1     -0.000000037  -0.000000125   0.597520755
Nb1      0.501483623  -0.002967347   0.598285092
Nb1     -0.002967380   0.501483802   0.598285138
Nb1      0.501483708   0.501483731   0.598285124
S1       0.333333401   0.333333244   0.668481060

     Writing output data file calc.save
     Check: negative starting charge=   -0.005081
     NEW-OLD atomic charge density approx. for the potential
     Check: negative starting charge=   -0.005084

[...]

     Total force =     0.048268     Total SCF correction =     0.005849
     SCF correction compared to forces is large: reduce conv_thr to get better values

[...]

     energy   old            =   -1446.7538249378 Ry
     energy   new            =   -1446.7571012795 Ry

     CASE: energy  _new < energy  _old

[...]

     iteration #  1     ecut=    36.75 Ry     beta=0.30
     Davidson diagonalization with overlap
     c_bands:  1 eigenvalues not converged
     ethr =  1.00E-06,  avg # of iterations = 13.3

[...]

     Threshold (ethr) on eigenvalues was too large:
     Diagonalizing with lowered threshold

     Davidson diagonalization with overlap
     ethr =  4.74E-08,  avg # of iterations =  4.0

[...]

     Total force =     0.003905     Total SCF correction =     0.000350

[...]

     number of scf cycles    =  15
     number of bfgs steps    =  14

     energy   old            =   -1446.7785157595 Ry
     energy   new            =   -1446.7785773724 Ry

     CASE: energy  _new < energy  _old

     new trust radius        =       0.0145996394 bohr
     new conv_thr            =       0.0000001000 Ry

ATOMIC_POSITIONS (crystal)
Nb1      0.166666667   0.166666667   0.402010442    0   0   0
Nb1      0.666666667   0.166666667   0.402010442    0   0   0
Nb1      0.166666667   0.666666667   0.402010442    0   0   0
Nb1      0.666666667   0.666666667   0.402010442    0   0   0
Nb1      0.833333333   0.333333333   0.500000000    0   0   0
Nb1      0.333333333   0.333333333   0.500000000    0   0   0
Nb1      0.833333333   0.833333333   0.500000000    0   0   0
Nb1      0.333333333   0.833333333   0.500000000    0   0   0
Nb1     -0.000001006   0.000000513   0.581431481
Nb1      0.505143548  -0.010286770   0.602792905
Nb1     -0.010286239   0.505143229   0.602792593
Nb1      0.505143317   0.505143449   0.602792786
S1       0.333334644   0.333332647   0.672104633

     Writing output data file calc.save
     Check: negative starting charge=   -0.005094
     NEW-OLD atomic charge density approx. for the potential
     Check: negative starting charge=   -0.005093

[...]

     Self-consistent Calculation

[...]

     Threshold (ethr) on eigenvalues was too large:
     Diagonalizing with lowered threshold

     Davidson diagonalization with overlap
     ethr =  8.70E-08,  avg # of iterations =  2.1

[...]

     total energy              =   -1446.77860381 Ry
     Harris-Foulkes estimate   =   -1446.77860379 Ry
     estimated scf accuracy    <       0.00000020 Ry

     iteration # 10     ecut=    36.75 Ry     beta=0.30
     Davidson diagonalization with overlap
     ethr =  1.24E-10,  avg # of iterations =  2.1

[...]

     negative rho (up, down):  4.796E-03 0.000E+00

     Adding external electric field

     Computed dipole along edir(3) :
        Dipole               -0.1631 Ry au,         -0.4147 Debye
        Dipole field         -0.0004 Ry au

        Potential amp.        0.0363 Ry
        Total length         45.8317 bohr

     End of self-consistent calculation

[...]

          k = 0.0558-0.0645 0.0000 ( 19505 PWs)   bands (ev):

[...]

          k =-0.0837-0.0483 0.0000 ( 19524 PWs)   bands (ev):

   -53.1601 -53.1198 -53.0863 -53.0851 -53.0741 -53.0286 -53.0073 -53.0019
   -52.9623 -52.9020 -52.8722 -52.7162 -29.5618 -29.4731 -29.4525 -29.4351
   -29.4140 -29.3950 -29.3762 -29.3049 -29.2938 -29.2775 -29.2430 -29.2083
   -29.1997 -29.1088 -29.0978 -29.0864 -29.0587 -29.0573 -29.0185 -29.0150
   -28.9833 -28.9701 -28.9426 -28.9139 -28.8901 -28.8495 -28.8143 -28.8017
   -28.8007 -28.7587 -28.7522 -28.6655 -28.6461 -28.5225 -28.4455 -28.3784
   -10.7578  -2.3282  -1.9973  -1.7106  -1.6316  -1.6222  -1.0020  -0.7762
    -0.6639  -0.6146  -0.5480  -0.4387  -0.3227  -0.1506   0.0192   0.1018
     0.1503   0.2318   0.3191   0.5211   0.5656   0.8352   0.8484   0.9163
     0.9447   1.1569   1.2253   1.3031   1.4097   1.4673   1.6229   1.6247
     1.6505   1.7219   1.9326   1.9589   2.1113   2.1163   2.3367   2.3612
     2.6633   2.6966   3.0263

     the Fermi energy is     1.9666 ev

!    total energy              =   -1446.77860380 Ry
     Harris-Foulkes estimate   =   -1446.77860403 Ry
     estimated scf accuracy    <       0.00000003 Ry

     The total energy is the sum of the following terms:

     one-electron contribution =  -11736.48158185 Ry
     hartree contribution      =    5862.84766017 Ry
     xc contribution           =    -237.19591760 Ry
     ewald contribution        =    4664.15901342 Ry
     electric field correction =       0.00006454 Ry
     smearing contrib. (-TS)   =      -0.10784248 Ry

     convergence has been achieved in  10 iterations

 BEEF-vdW xc energy contributions
           1 :   -203.319130865370
           2 :    184.704628840235
           3 :   -152.975181666501
           4 :    116.613129203533
           5 :   -83.7692273756425
           6 :    59.5775557034761
           7 :   -45.0701819876554
           8 :    37.8231269746971
           9 :   -33.7992453170602
          10 :    29.3889345585760
          11 :   -22.7778228208339
          12 :    14.2026951596089
          13 :   -5.25122991316539
          14 :   -2.27904919211977
          15 :    7.34588318506877
          16 :   -10.0560782575016
          17 :    11.4047588972923
          18 :   -12.6030939146406
          19 :    14.3900554457669
          20 :   -16.6944981615630
          21 :    18.7801449085796
          22 :   -19.7425969948327
          23 :    19.0460941113998
          24 :   -16.8111030760970
          25 :    13.7250275345069
          26 :   -10.6712877277096
          27 :    8.30348986762453
          28 :   -6.79592318496603
          29 :    5.87319076416173
          30 :   -5.06491981788582
          31 :   -23.4909161293521
          32 :   -17.7059337586956

     Forces acting on atoms (Ry/au):

     negative rho (up, down):  4.796E-03 0.000E+00
     atom    1 type  1   force =     0.00206990    0.00119652   -0.00193920
     atom    2 type  1   force =    -0.00206947    0.00119504   -0.00193953
     atom    3 type  1   force =    -0.00000104   -0.00239101   -0.00193905
     atom    4 type  1   force =     0.00000201   -0.00000141    0.00016096
     atom    5 type  1   force =    -0.00000020    0.02645186   -0.01349898
     atom    6 type  1   force =    -0.00000070   -0.00000041    0.04602669
     atom    7 type  1   force =    -0.02290817   -0.01322557   -0.01350041
     atom    8 type  1   force =     0.02290704   -0.01322497   -0.01349401
     atom    9 type  1   force =    -0.00000029    0.00000077   -0.00001614
     atom   10 type  1   force =    -0.00000044    0.00075716    0.00024517
     atom   11 type  1   force =     0.00065666   -0.00037981    0.00024728
     atom   12 type  1   force =    -0.00065499   -0.00037868    0.00024692
     atom   13 type  2   force =    -0.00000030    0.00000050   -0.00059970

     Total force =     0.001504     Total SCF correction =     0.000460
     SCF correction compared to forces is large: reduce conv_thr to get better values

     entering subroutine stress ...

     negative rho (up, down):  4.796E-03 0.000E+00
          total   stress  (Ry/bohr**3)                   (kbar)     P=  -15.30
  -0.00015786   0.00000000  -0.00000000        -23.22      0.00     -0.00
   0.00000000  -0.00015786   0.00000000          0.00    -23.22      0.00
  -0.00000000   0.00000000   0.00000373         -0.00      0.00      0.55

     bfgs converged in  16 scf cycles and  15 bfgs steps
     (criteria: energy <  1.0E+00, force <  1.9E-03)

     End of BFGS Geometry Optimization

     Final energy   =   -1446.7786038020 Ry
Begin final coordinates

ATOMIC_POSITIONS (crystal)
Nb1      0.166666667   0.166666667   0.402010442    0   0   0
Nb1      0.666666667   0.166666667   0.402010442    0   0   0
Nb1      0.166666667   0.666666667   0.402010442    0   0   0
Nb1      0.666666667   0.666666667   0.402010442    0   0   0
Nb1      0.833333333   0.333333333   0.500000000    0   0   0
Nb1      0.333333333   0.333333333   0.500000000    0   0   0
Nb1      0.833333333   0.833333333   0.500000000    0   0   0
Nb1      0.333333333   0.833333333   0.500000000    0   0   0
Nb1     -0.000001006   0.000000513   0.581431481
Nb1      0.505143548  -0.010286770   0.602792905
Nb1     -0.010286239   0.505143229   0.602792593
Nb1      0.505143317   0.505143449   0.602792786
S1       0.333334644   0.333332647   0.672104633
End final coordinates

     Writing output data file calc.save

     General routines

     Parallel routines

   This run was terminated on:  11:42:47   3May2018

   JOB DONE.
Job  /afs/slac/g/suncat/bin/suncat-tsmpirun -x LD_LIBRARY_PATH -wdir /scratch/qe712890_ZNOy9 pw.x -npool 4 -in pw.inp

TID   HOST_NAME   COMMAND_LINE            STATUS            TERMINATION_TIME
00000 suncat0251 pw.x -npool 4 -i  Done                     05/03/2018 11:42:47
00001 suncat0251 pw.x -npool 4 -i  Done                     05/03/2018 11:42:47
00002 suncat0251 pw.x -npool 4 -i  Done                     05/03/2018 11:42:47
00003 suncat0251 pw.x -npool 4 -i  Done                     05/03/2018 11:42:47
00004 suncat0251 pw.x -npool 4 -i  Done                     05/03/2018 11:42:47
00005 suncat0251 pw.x -npool 4 -i  Done                     05/03/2018 11:42:47
00006 suncat0251 pw.x -npool 4 -i  Done                     05/03/2018 11:42:47
00007 suncat0251 pw.x -npool 4 -i  Done                     05/03/2018 11:42:47
00008 suncat0249 pw.x -npool 4 -i  Done                     05/03/2018 11:42:47
00009 suncat0249 pw.x -npool 4 -i  Done                     05/03/2018 11:42:47
00010 suncat0249 pw.x -npool 4 -i  Done                     05/03/2018 11:42:47
00011 suncat0249 pw.x -npool 4 -i  Done                     05/03/2018 11:42:47
00012 suncat0249 pw.x -npool 4 -i  Done                     05/03/2018 11:42:47
00013 suncat0249 pw.x -npool 4 -i  Done                     05/03/2018 11:42:47
00014 suncat0249 pw.x -npool 4 -i  Done                     05/03/2018 11:42:47
00015 suncat0249 pw.x -npool 4 -i  Done                     05/03/2018 11:42:47
00016 suncat0212 pw.x -npool 4 -i  Done                     05/03/2018 11:42:47
00017 suncat0212 pw.x -npool 4 -i  Done                     05/03/2018 11:42:47
00018 suncat0212 pw.x -npool 4 -i  Done                     05/03/2018 11:42:47
00019 suncat0212 pw.x -npool 4 -i  Done                     05/03/2018 11:42:47
00020 suncat0212 pw.x -npool 4 -i  Done                     05/03/2018 11:42:47
00021 suncat0212 pw.x -npool 4 -i  Done                     05/03/2018 11:42:47
00022 suncat0212 pw.x -npool 4 -i  Done                     05/03/2018 11:42:47
00023 suncat0212 pw.x -npool 4 -i  Done                     05/03/2018 11:42:47
00024 suncat0211 pw.x -npool 4 -i  Done                     05/03/2018 11:42:47
00025 suncat0211 pw.x -npool 4 -i  Done                     05/03/2018 11:42:47
00026 suncat0211 pw.x -npool 4 -i  Done                     05/03/2018 11:42:47
00027 suncat0211 pw.x -npool 4 -i  Done                     05/03/2018 11:42:47
00028 suncat0211 pw.x -npool 4 -i  Done                     05/03/2018 11:42:47
00029 suncat0211 pw.x -npool 4 -i  Done                     05/03/2018 11:42:47
00030 suncat0211 pw.x -npool 4 -i  Done                     05/03/2018 11:42:47
00031 suncat0211 pw.x -npool 4 -i  Done                     05/03/2018 11:42:47