     Program PWSCF v.5.1rc2 (svn rev. 11289) starts on  3May2018 at 10:22:59

     Current dimensions of program PWSCF are:
     Max number of different atomic species (ntypx) = 10
     Max number of k-points (npk) =  40000
     Max angular momentum in pseudopotentials (lmaxx) =  3
     Presently stress not available with electric field

     IMPORTANT: XC functional enforced from input :
     Exchange-correlation      = BEEF-VDW ( 1  4 27 13 2)
     Any further DFT definition will be discarded
     Please, verify this is what you really want

     Subspace diagonalization in iterative solution of the eigenvalue problem:
     a serial algorithm will be used

     bravais-lattice index     =            0
     lattice parameter (alat)  =       1.8897  a.u.
     unit-cell volume          =    8507.0471 (a.u.)^3
     number of atoms/cell      =           13
     number of atomic types    =            2
     number of electrons       =       136.00
     number of Kohn-Sham states=           78
     kinetic-energy cutoff     =      36.7493  Ry
     charge density cutoff     =     367.4932  Ry
     convergence threshold     =      1.0E-05
     mixing beta               =       0.3000
     number of iterations used =           10  plain     mixing
     Exchange-correlation      = BEEF-VDW ( 1  4 27 13 2)
     nstep                     =           50

     celldm(1)=   1.889726  celldm(2)=   0.000000  celldm(3)=   0.000000
     celldm(4)=   0.000000  celldm(5)=   0.000000  celldm(6)=   0.000000

     crystal axes: (cart. coord. in units of alat)
               a(1) = (   7.468327   0.000000   0.000000 )
               a(2) = (   3.734164   6.467761   0.000000 )
               a(3) = (   0.000000   0.000000  26.097863 )

     reciprocal axes: (cart. coord. in units 2 pi/alat)
               b(1) = (  0.133899 -0.077307  0.000000 )
               b(2) = (  0.000000  0.154613  0.000000 )
               b(3) = (  0.000000  0.000000  0.038317 )

     PseudoPot. # 1 for La read from file:
     /u/if/mamunm/psp/gbrv1.5pbe/La.UPF
     MD5 check sum: 5937b0c7494ba0601a847275249473aa
     Pseudo is Ultrasoft + core correction, Zval = 11.0
     Generated by new atomic code, or converted to UPF format
     Using radial grid of  995 points,  8 beta functions with:
                l(1) =   0
                l(2) =   0
                l(3) =   1
                l(4) =   1
                l(5) =   2
                l(6) =   2
                l(7) =   3
                l(8) =   3
     Q(r) pseudized with  8 coefficients,  rinner =    1.700   1.700   1.700
                                                       1.700   1.700   1.700
                                                       1.700

     PseudoPot. # 2 for C  read from file:
     /u/if/mamunm/psp/gbrv1.5pbe/C.UPF
     MD5 check sum: d1aef80898a10debaa0f26306b886e00
     Pseudo is Ultrasoft + core correction, Zval =  4.0
     Generated by new atomic code, or converted to UPF format
     Using radial grid of  721 points,  4 beta functions with:
                l(1) =   0
                l(2) =   0
                l(3) =   1
                l(4) =   1
     Q(r) pseudized with  8 coefficients,  rinner =    1.100   1.100   1.100

     vdW kernel table read from file vdW_kernel_table
     MD5 check sum: 095c7af220d748ca6e76c0b4c6cfb241

     atomic species   valence    mass     pseudopotential
        La1           11.00   138.90547     La( 1.00)
        C1             4.00    12.01100     C ( 1.00)

     No symmetry found

   Cartesian axes

     site n.     atom                  positions (alat units)
         1           La1 tau(   1) = (   1.8670818   1.0779602  10.0000000  )
         2           La1 tau(   2) = (   5.6012453   1.0779602  10.0000000  )
         3           La1 tau(   3) = (   3.7341635   4.3118406  10.0000000  )
         4           La1 tau(   4) = (   7.4683270   4.3118406  10.0000000  )
         5           La1 tau(   5) = (   7.4683270   2.1559203  13.0489317  )
         6           La1 tau(   6) = (   3.7341635   2.1559203  13.0489317  )
         7           La1 tau(   7) = (   9.3354088   5.3898008  13.0489317  )
         8           La1 tau(   8) = (   5.6012453   5.3898008  13.0489317  )
         9           La1 tau(   9) = (   0.0000000   0.0000000  16.0978635  )
        10           La1 tau(  10) = (   3.7341635   0.0000000  16.0978635  )
        11           La1 tau(  11) = (   1.8670818   3.2338805  16.0978635  )
        12           La1 tau(  12) = (   5.6012453   3.2338805  16.0978635  )
        13           C1  tau(  13) = (   3.7341635   2.1559203  17.9373635  )

     number of k points=    20  Fermi-Dirac smearing, width (Ry)=  0.0110
                       cart. coord. in units 2pi/alat
        k(    1) = (   0.0000000   0.0000000   0.0000000), wk =   0.0555556
        k(    2) = (   0.0000000   0.0257688   0.0000000), wk =   0.1111111
        k(    3) = (   0.0000000   0.0515377   0.0000000), wk =   0.1111111
        k(    4) = (   0.0000000  -0.0773065   0.0000000), wk =   0.0555556
        k(    5) = (   0.0223165  -0.0128844   0.0000000), wk =   0.1111111
        k(    6) = (   0.0223165   0.0128844   0.0000000), wk =   0.1111111
        k(    7) = (   0.0223165   0.0386533   0.0000000), wk =   0.1111111
        k(    8) = (   0.0223165  -0.0901909   0.0000000), wk =   0.1111111
        k(    9) = (   0.0223165  -0.0644221   0.0000000), wk =   0.1111111
        k(   10) = (   0.0223165  -0.0386533   0.0000000), wk =   0.1111111
        k(   11) = (   0.0446329  -0.0257688   0.0000000), wk =   0.1111111
        k(   12) = (   0.0446329   0.0000000   0.0000000), wk =   0.1111111
        k(   13) = (   0.0446329   0.0257688   0.0000000), wk =   0.1111111
        k(   14) = (   0.0446329  -0.1030753   0.0000000), wk =   0.1111111
        k(   15) = (   0.0446329  -0.0773065   0.0000000), wk =   0.1111111
        k(   16) = (   0.0446329  -0.0515377   0.0000000), wk =   0.1111111
        k(   17) = (  -0.0669494   0.0386533   0.0000000), wk =   0.0555556
        k(   18) = (  -0.0669494   0.0644221   0.0000000), wk =   0.1111111
        k(   19) = (  -0.0669494   0.0901909   0.0000000), wk =   0.1111111
        k(   20) = (  -0.0669494  -0.0386533   0.0000000), wk =   0.0555556

     Largest allocated arrays     est. size (Mb)     dimensions
     Largest temporary arrays     est. size (Mb)     dimensions

     Initial potential from superposition of free atoms
     Check: negative starting charge=   -0.831105

     starting charge  135.61514, renormalised to  136.00000

     negative rho (up, down):  8.335E-01 0.000E+00

     *
     * You are using vdW-DF for exchange-correlation in this calculation.
     * Please cite the following three references that made this development
     * possible:
     *
     *   M. Dion, H. Rydberg, E. Schroder, D. C. Langreth, and
     *   B. I. Lundqvist, Phys. Rev. Lett. 92, 246401 (2004).
     *
     *   T. Thonhauser, V. R. Cooper, S. Li, A. Puzder, P. Hyldgaard, and
     *   D. C. Langreth, Phys. Rev. B 76, 125112 (2007).
     *
     *   G. Roman-Perez and J. M. Soler, Phys. Rev. Lett. 103, 096102 (2009).
     *
     *
     * If you are using vdW-DF2, please also cite:
     *
     *   K. Lee, E. D. Murray, L. Kong, B. I. Lundqvist, and
     *   D. C. Langreth, Phys. Rev. B 82, 081101(R) (2010).
     *
     *
     * If you are calculating the stress with vdW-DF, please also cite:
     *
     *   R. Sabatini, E. Kucukbenli, B. Kolb, T. Thonhauser, and
     *   S. de Gironcoli, J. Phys.: Condens. Matter 24, 424209 (2012).
     *

     Carrying out vdW-DF run using the following parameters:

     Nqs =      20    Nr_points =    1024   r_max =   100.000
     q_mesh =
               0.00001000     0.04494208     0.09755937     0.15916263
               0.23128650     0.31572767     0.41458969     0.53033537
               0.66584808     0.82450364     1.01025438     1.22772762
               1.48234092     1.78043706     2.12944203     2.53805004
               3.01644009     3.57652955     4.23227104     5.00000000

     Gradients computed in reciprocal space

     Adding external electric field

     Computed dipole along edir(3) :
        Dipole               -0.1045 Ry au,         -0.2656 Debye
        Dipole field         -0.0002 Ry au

        Potential amp.        0.0148 Ry
        Total length         48.0849 bohr

     Starting wfc are  244 randomized atomic wfcs

     Self-consistent Calculation

     iteration #  1     ecut=    36.75 Ry     beta=0.30
     Davidson diagonalization with overlap
     ethr =  1.00E-02,  avg # of iterations =  2.0

[...]

     total energy              =   -1257.05487963 Ry
     Harris-Foulkes estimate   =   -1260.22626179 Ry
     estimated scf accuracy    <       6.73373354 Ry

[...]

     iteration # 14     ecut=    36.75 Ry     beta=0.30
     Davidson diagonalization with overlap
     c_bands:  1 eigenvalues not converged
     ethr =  1.66E-06,  avg # of iterations = 14.1

[...]

     End of self-consistent calculation

          k = 0.0000 0.0000 0.0000 ( 31997 PWs)   bands (ev):

   -31.9260 -31.8563 -31.7269 -31.7226 -31.7226 -31.6042 -31.5105 -31.5104
   -31.4039 -31.2899 -31.2836 -31.2836 -15.9554 -15.9554 -15.9367 -15.8815
   -15.8815 -15.8183 -15.7449 -15.7241 -15.6857 -15.6856 -15.5211 -15.3303
   -15.2810 -15.2810 -15.1797 -15.1160 -15.1160 -15.1126 -15.0798 -15.0797
   -15.0485 -15.0485 -14.9566 -14.8611 -14.8611 -14.7972 -14.7691 -14.7691
   -14.7320 -14.7169 -14.7169 -14.6723 -14.6607 -14.6607 -14.4533 -14.4533
    -6.4352  -1.2577  -0.5129  -0.1900  -0.1505  -0.1505  -0.1443   0.0348
     0.0348   0.1339   0.2707   0.3122   0.3122   0.4698   0.4698   0.4807
     0.9917   0.9917   1.2081   1.6357   1.6500   1.6500   1.7363   2.1113
     2.1113   2.3153   2.4475   2.5902   2.6327   2.7228

[...]

          k =-0.0669 0.0387 0.0000 ( 31970 PWs)   bands (ev):

[...]

     the Fermi energy is     1.5077 ev

!    total energy              =   -1259.53137756 Ry
     Harris-Foulkes estimate   =   -1259.53140054 Ry
     estimated scf accuracy    <       0.00000251 Ry

     The total energy is the sum of the following terms:

     one-electron contribution =   -4739.00141682 Ry
     hartree contribution      =    2380.99594644 Ry
     xc contribution           =    -611.89489373 Ry
     ewald contribution        =    1710.49556459 Ry
     electric field correction =       0.00056367 Ry
     smearing contrib. (-TS)   =      -0.12714171 Ry

     convergence has been achieved in  22 iterations

 BEEF-vdW xc energy contributions
           1 :   -542.120202988934
           2 :    498.747816308038
           3 :   -421.987317143185
           4 :    328.157031988613
           5 :   -234.654224423630
           6 :    155.305276557888
           7 :   -97.7221574175053
           8 :    62.9661501526874
           9 :   -47.0159265454621
          10 :    43.1454493424508
          11 :   -44.3150472910289
          12 :    44.9078018073219
          13 :   -41.5533247397216
          14 :    33.1752414248252
          15 :   -20.6012222583909
          16 :    5.99658381859376
          17 :    7.79736213401600
          18 :   -18.0301777531777
          19 :    22.8346084902220
          20 :   -21.8306857569089
          21 :    16.2899761634869
          22 :   -8.73231532049920
          23 :    2.04769688248007
          24 :    1.53640458713835
          25 :   -1.22131469754640
          26 :   -2.19472250282161
          27 :    6.81000340439755
          28 :   -10.5284571664791
          29 :    11.9504754845818
          30 :   -10.8543393187238
          31 :   -46.1492878406543
          32 :   -33.1334727495725

     Forces acting on atoms (Ry/au):

     negative rho (up, down):  5.850E-01 0.000E+00
     atom    1 type  1   force =    -0.00052112   -0.00028424    0.00462587
     atom    2 type  1   force =     0.00052761   -0.00030600    0.00462615
     atom    3 type  1   force =    -0.00001741    0.00060016    0.00463120
     atom    4 type  1   force =     0.00001506   -0.00000461    0.00570826
     atom    5 type  1   force =    -0.00000281   -0.00239407   -0.00542942
     atom    6 type  1   force =     0.00000115    0.00000244   -0.01367696
     atom    7 type  1   force =     0.00206948    0.00119380   -0.00543018
     atom    8 type  1   force =    -0.00206786    0.00119719   -0.00540730
     atom    9 type  1   force =    -0.00000656    0.00000172    0.00649637
     atom   10 type  1   force =     0.00000842    0.04114269    0.03957684
     atom   11 type  1   force =     0.03562845   -0.02057465    0.03957242
     atom   12 type  1   force =    -0.03563476   -0.02057534    0.03957543
     atom   13 type  2   force =     0.00000036    0.00000090   -0.11486867

     Total force =     0.151704     Total SCF correction =     0.000768

     entering subroutine stress ...

     negative rho (up, down):  5.850E-01 0.000E+00
          total   stress  (Ry/bohr**3)                   (kbar)     P=   -4.74
  -0.00002066  -0.00000000  -0.00000000         -3.04     -0.00     -0.00
  -0.00000000  -0.00002065  -0.00000000         -0.00     -3.04     -0.00
  -0.00000000  -0.00000000  -0.00005538         -0.00     -0.00     -8.15

     BFGS Geometry Optimization

     number of scf cycles    =   1
     number of bfgs steps    =   0

     energy   new            =   -1259.5313775606 Ry

     new trust radius        =       0.1148686729 bohr
     new conv_thr            =       0.0000099958 Ry

ATOMIC_POSITIONS (crystal)
La1      0.166666667   0.166666667   0.383173129    0   0   0
La1      0.666666667   0.166666667   0.383173129    0   0   0
La1      0.166666667   0.666666667   0.383173129    0   0   0
La1      0.666666667   0.666666667   0.383173129    0   0   0
La1      0.833333333   0.333333333   0.500000000    0   0   0
La1      0.333333333   0.333333333   0.500000000    0   0   0
La1      0.833333333   0.833333333   0.500000000    0   0   0
La1      0.333333333   0.833333333   0.500000000    0   0   0
La1     -0.000000535   0.000000141   0.616958596
La1      0.498317497   0.003366200   0.617629357
La1      0.003366181   0.498316630   0.617629267
La1      0.498316770   0.498316573   0.617629328
C1       0.333333322   0.333333407   0.684982416

     Writing output data file calc.save
     Check: negative starting charge=   -0.831105
     NEW-OLD atomic charge density approx. for the potential
     Check: negative starting charge=   -0.832115

[...]

     energy   old            =   -1259.5313775606 Ry
     energy   new            =   -1259.5541841424 Ry

     CASE: energy  _new < energy  _old

     WARNING: bfgs curvature condition failed, Theta= 0.818
     new trust radius        =       0.1723030094 bohr
     new conv_thr            =       0.0000001000 Ry

[...]

     WARNING: bfgs curvature condition failed, Theta= 0.945
     new trust radius        =       0.7007944883 bohr
     new conv_thr            =       0.0000001000 Ry

[...]

     iteration #  1     ecut=    36.75 Ry     beta=0.30
     Davidson diagonalization with overlap
     c_bands:  1 eigenvalues not converged
     ethr =  1.00E-06,  avg # of iterations = 16.4

[...]

     number of scf cycles    =  24
     number of bfgs steps    =  23

     energy   old            =   -1259.7138259448 Ry
     energy   new            =   -1259.7156186558 Ry

     CASE: energy  _new < energy  _old

     new trust radius        =       0.0200430757 bohr
     new conv_thr            =       0.0000001000 Ry

ATOMIC_POSITIONS (crystal)
La1      0.166666667   0.166666667   0.383173129    0   0   0
La1      0.666666667   0.166666667   0.383173129    0   0   0
La1      0.166666667   0.666666667   0.383173129    0   0   0
La1      0.666666667   0.666666667   0.383173129    0   0   0
La1      0.833333333   0.333333333   0.500000000    0   0   0
La1      0.333333333   0.333333333   0.500000000    0   0   0
La1      0.833333333   0.833333333   0.500000000    0   0   0
La1      0.333333333   0.833333333   0.500000000    0   0   0
La1     -0.000004311   0.000002543   0.609846112
La1      0.503114355  -0.006231223   0.621959876
La1     -0.006230448   0.503112807   0.621957170
La1      0.503117863   0.503113294   0.621960682
C1       0.333334682   0.333330549   0.598720487

     Writing output data file calc.save
     Check: negative starting charge=   -0.833179
     NEW-OLD atomic charge density approx. for the potential
     Check: negative starting charge=   -0.832861

[...]

     Self-consistent Calculation

[...]

     total energy              =   -1259.71567810 Ry
     Harris-Foulkes estimate   =   -1259.71567808 Ry
     estimated scf accuracy    <       0.00000013 Ry

     iteration # 12     ecut=    36.75 Ry     beta=0.30
     Davidson diagonalization with overlap
     ethr =  9.67E-11,  avg # of iterations =  6.2

[...]

     negative rho (up, down):  5.708E-01 0.000E+00

     Adding external electric field

     Computed dipole along edir(3) :
        Dipole                0.0585 Ry au,          0.1487 Debye
        Dipole field          0.0001 Ry au

        Potential amp.       -0.0083 Ry
        Total length         48.0849 bohr

     End of self-consistent calculation

[...]

          k = 0.0446-0.0515 0.0000 ( 31991 PWs)   bands (ev):

[...]

          k =-0.0669-0.0387 0.0000 ( 31970 PWs)   bands (ev):

   -31.3029 -31.2989 -31.2358 -31.2324 -31.1742 -30.9493 -30.9029 -30.8683
   -30.8267 -30.8065 -30.7685 -30.6927 -15.3906 -15.2621 -15.2437 -15.1621
   -15.1078 -15.0918 -15.0616 -15.0192 -14.9910 -14.9428 -14.9205 -14.8822
   -14.8701 -14.8588 -14.8034 -14.7422 -14.7376 -14.7182 -14.6780 -14.5889
   -14.5143 -14.5020 -14.4959 -14.4922 -14.4113 -14.3830 -14.3762 -14.3329
   -14.3119 -14.2460 -14.2172 -14.2104 -14.1752 -14.1537 -14.0488 -14.0235
    -5.8245  -0.3999  -0.1357   0.2535   0.4414   0.6075   0.8887   1.0318
     1.2050   1.2532   1.2554   1.4760   1.5037   1.6197   1.7393   1.8201
     1.8360   1.9096   1.9330   2.0074   2.0571   2.1986   2.2129   2.2242
     2.2876   2.3833   2.3844   2.5118   2.5413   2.5702

     the Fermi energy is     1.9879 ev

!    total energy              =   -1259.71567805 Ry
     Harris-Foulkes estimate   =   -1259.71567800 Ry
     estimated scf accuracy    <       0.00000003 Ry

     The total energy is the sum of the following terms:

     one-electron contribution =   -4877.77811717 Ry
     hartree contribution      =    2452.96035736 Ry
     xc contribution           =    -612.51001209 Ry
     ewald contribution        =    1777.74273382 Ry
     electric field correction =       0.00000505 Ry
     smearing contrib. (-TS)   =      -0.13064502 Ry

     convergence has been achieved in  12 iterations

 BEEF-vdW xc energy contributions
           1 :   -542.729104928202
           2 :    499.478430346666
           3 :   -422.822521827311
           4 :    328.950456323914
           5 :   -235.222012882605
           6 :    155.495700000302
           7 :   -97.4560190455004
           8 :    62.2685969110372
           9 :   -46.0288391826224
          10 :    42.0931605289049
          11 :   -43.4227076049432
          12 :    44.3112880344710
          13 :   -41.2517695782109
          14 :    33.0514795284173
          15 :   -20.4973030942278
          16 :    5.80189878447027
          17 :    8.09479159474654
          18 :   -18.3565507317047
          19 :    23.0951588041889
          20 :   -21.9822090736695
          21 :    16.3730938705008
          22 :   -8.84445503259190
          23 :    2.27815795532297
          24 :    1.16616197460985
          25 :  -0.774674572776348
          26 :   -2.60587067826623
          27 :    7.09103774663129
          28 :   -10.6537009878480
          29 :    11.9678029519107
          30 :   -10.8448082159387
          31 :   -46.1889119430004
          32 :   -33.1973534770043

     Forces acting on atoms (Ry/au):

     negative rho (up, down):  5.708E-01 0.000E+00
     atom    1 type  1   force =    -0.00400717   -0.00231328    0.00170028
     atom    2 type  1   force =     0.00400681   -0.00231307    0.00170025
     atom    3 type  1   force =    -0.00000011    0.00462654    0.00170039
     atom    4 type  1   force =     0.00000019   -0.00000000    0.00377108
     atom    5 type  1   force =    -0.00000020    0.00429330   -0.00881397
     atom    6 type  1   force =     0.00000083    0.00000031    0.01637311
     atom    7 type  1   force =    -0.00371849   -0.00214654   -0.00881394
     atom    8 type  1   force =     0.00371737   -0.00214701   -0.00881119
     atom    9 type  1   force =     0.00000177   -0.00000274    0.00067889
     atom   10 type  1   force =    -0.00000031    0.00070456    0.00052069
     atom   11 type  1   force =     0.00060881   -0.00034979    0.00052182
     atom   12 type  1   force =    -0.00061816   -0.00035475    0.00051637
     atom   13 type  2   force =     0.00000866    0.00000248   -0.00104379

     Total force =     0.001964     Total SCF correction =     0.000162

     entering subroutine stress ...

     negative rho (up, down):  5.708E-01 0.000E+00
          total   stress  (Ry/bohr**3)                   (kbar)     P=    2.26
   0.00002601  -0.00000000  -0.00000000          3.83     -0.00     -0.00
  -0.00000000   0.00002601  -0.00000000         -0.00      3.83     -0.00
  -0.00000000  -0.00000000  -0.00000595         -0.00     -0.00     -0.88

     bfgs converged in  25 scf cycles and  24 bfgs steps
     (criteria: energy <  1.0E+00, force <  1.9E-03)

     End of BFGS Geometry Optimization

     Final energy   =   -1259.7156780500 Ry
Begin final coordinates

ATOMIC_POSITIONS (crystal)
La1      0.166666667   0.166666667   0.383173129    0   0   0
La1      0.666666667   0.166666667   0.383173129    0   0   0
La1      0.166666667   0.666666667   0.383173129    0   0   0
La1      0.666666667   0.666666667   0.383173129    0   0   0
La1      0.833333333   0.333333333   0.500000000    0   0   0
La1      0.333333333   0.333333333   0.500000000    0   0   0
La1      0.833333333   0.833333333   0.500000000    0   0   0
La1      0.333333333   0.833333333   0.500000000    0   0   0
La1     -0.000004311   0.000002543   0.609846112
La1      0.503114355  -0.006231223   0.621959876
La1     -0.006230448   0.503112807   0.621957170
La1      0.503117863   0.503113294   0.621960682
C1       0.333334682   0.333330549   0.598720487
End final coordinates

     Writing output data file calc.save

     General routines

     Parallel routines

   This run was terminated on:  21:43:36   3May2018

   JOB DONE.
Job  /afs/slac/g/suncat/bin/suncat-tsmpirun -x LD_LIBRARY_PATH -wdir /scratch/qe730964_4kuRx pw.x -npool 4 -in pw.inp

TID   HOST_NAME   COMMAND_LINE            STATUS            TERMINATION_TIME
00000 suncat0095 pw.x -npool 4 -i  Done                     05/03/2018 21:43:36
00001 suncat0095 pw.x -npool 4 -i  Done                     05/03/2018 21:43:36
00002 suncat0095 pw.x -npool 4 -i  Done                     05/03/2018 21:43:36
00003 suncat0095 pw.x -npool 4 -i  Done                     05/03/2018 21:43:36
00004 suncat0095 pw.x -npool 4 -i  Done                     05/03/2018 21:43:36
00005 suncat0095 pw.x -npool 4 -i  Done                     05/03/2018 21:43:36
00006 suncat0095 pw.x -npool 4 -i  Done                     05/03/2018 21:43:36
00007 suncat0095 pw.x -npool 4 -i  Done                     05/03/2018 21:43:36
00008 suncat0088 pw.x -npool 4 -i  Done                     05/03/2018 21:43:36
00009 suncat0088 pw.x -npool 4 -i  Done                     05/03/2018 21:43:36
00010 suncat0088 pw.x -npool 4 -i  Done                     05/03/2018 21:43:36
00011 suncat0088 pw.x -npool 4 -i  Done                     05/03/2018 21:43:36
00012 suncat0088 pw.x -npool 4 -i  Done                     05/03/2018 21:43:36
00013 suncat0088 pw.x -npool 4 -i  Done                     05/03/2018 21:43:36
00014 suncat0088 pw.x -npool 4 -i  Done                     05/03/2018 21:43:36
00015 suncat0088 pw.x -npool 4 -i  Done                     05/03/2018 21:43:36
00016 suncat0008 pw.x -npool 4 -i  Done                     05/03/2018 21:43:36
00017 suncat0008 pw.x -npool 4 -i  Done                     05/03/2018 21:43:36
00018 suncat0008 pw.x -npool 4 -i  Done                     05/03/2018 21:43:36
00019 suncat0008 pw.x -npool 4 -i  Done                     05/03/2018 21:43:36
00020 suncat0008 pw.x -npool 4 -i  Done                     05/03/2018 21:43:36
00021 suncat0008 pw.x -npool 4 -i  Done                     05/03/2018 21:43:36
00022 suncat0008 pw.x -npool 4 -i  Done                     05/03/2018 21:43:36
00023 suncat0008 pw.x -npool 4 -i  Done                     05/03/2018 21:43:36
00024 suncat0001 pw.x -npool 4 -i  Done                     05/03/2018 21:43:36
00025 suncat0001 pw.x -npool 4 -i  Done                     05/03/2018 21:43:36
00026 suncat0001 pw.x -npool 4 -i  Done                     05/03/2018 21:43:36
00027 suncat0001 pw.x -npool 4 -i  Done                     05/03/2018 21:43:36
00028 suncat0001 pw.x -npool 4 -i  Done                     05/03/2018 21:43:36
00029 suncat0001 pw.x -npool 4 -i  Done                     05/03/2018 21:43:36
00030 suncat0001 pw.x -npool 4 -i  Done                     05/03/2018 21:43:36
00031 suncat0001 pw.x -npool 4 -i  Done                     05/03/2018 21:43:36