     Program PWSCF v.5.1rc2 (svn rev. 11289) starts on 21Apr2018 at 20:44:16

     Current dimensions of program PWSCF are:
     Max number of different atomic species (ntypx) = 10
     Max number of k-points (npk) =  40000
     Max angular momentum in pseudopotentials (lmaxx) =  3
     Presently stress not available with electric field

     IMPORTANT: XC functional enforced from input :
     Exchange-correlation      = BEEF-VDW ( 1  4 27 13 2)
     Any further DFT definition will be discarded
     Please, verify this is what you really want

     Subspace diagonalization in iterative solution of the eigenvalue problem:
     a serial algorithm will be used

     bravais-lattice index     =            0
     lattice parameter (alat)  =       1.8897  a.u.
     unit-cell volume          =    4569.9960 (a.u.)^3
     number of atoms/cell      =           14
     number of atomic types    =            3
     number of electrons       =       199.00
     number of Kohn-Sham states=          109
     kinetic-energy cutoff     =      36.7493  Ry
     charge density cutoff     =     367.4932  Ry
     convergence threshold     =      1.0E-05
     mixing beta               =       0.3000
     number of iterations used =           10  plain     mixing
     Exchange-correlation      = BEEF-VDW ( 1  4 27 13 2)
     nstep                     =           50

     celldm(1)=   1.889726  celldm(2)=   0.000000  celldm(3)=   0.000000
     celldm(4)=   0.000000  celldm(5)=   0.000000  celldm(6)=   0.000000

     crystal axes: (cart. coord. in units of alat)
               a(1) = (   5.637663   0.000000   0.000000 )
               a(2) = (   2.818831   4.882359   0.000000 )
               a(3) = (   0.000000   0.000000  24.603132 )

     reciprocal axes: (cart. coord. in units 2 pi/alat)
               b(1) = (  0.177378 -0.102410  0.000000 )
               b(2) = (  0.000000  0.204819  0.000000 )
               b(3) = (  0.000000  0.000000  0.040645 )

     PseudoPot. # 1 for Pd read from file:
     /u/if/mamunm/psp/gbrv1.5pbe/Pd.UPF
     MD5 check sum: 2d733d2bc2cbfd217af676df1668a4bc
     Pseudo is Ultrasoft + core correction, Zval = 16.0
     Generated by new atomic code, or converted to UPF format
     Using radial grid of  887 points,  6 beta functions with:
                l(1) =   0
                l(2) =   0
                l(3) =   1
                l(4) =   1
                l(5) =   2
                l(6) =   2
     Q(r) pseudized with  8 coefficients,  rinner =    1.130   1.130   1.130
                                                       1.130   1.130

     PseudoPot. # 2 for O  read from file:
     /u/if/mamunm/psp/gbrv1.5pbe/O.UPF
     MD5 check sum: 734c27235a0248c51dbae37a1fbe46ec
     Pseudo is Ultrasoft + core correction, Zval =  6.0
     Generated by new atomic code, or converted to UPF format
     Using radial grid of  737 points,  5 beta functions with:
                l(1) =   0
                l(2) =   0
                l(3) =   1
                l(4) =   1
                l(5) =   2
     Q(r) pseudized with  8 coefficients,  rinner =    0.900   0.900   0.900
                                                       0.900   0.900

     PseudoPot. # 3 for H  read from file:
     /u/if/mamunm/psp/gbrv1.5pbe/H.UPF
     MD5 check sum: 761ae9a214b05c3daf00ab9f6b793d6f
     Pseudo is Ultrasoft, Zval =  1.0
     Generated by new atomic code, or converted to UPF format
     Using radial grid of  615 points,  2 beta functions with:
                l(1) =   0
                l(2) =   0
     Q(r) pseudized with  8 coefficients,  rinner =    0.700

     vdW kernel table read from file vdW_kernel_table
     MD5 check sum: 095c7af220d748ca6e76c0b4c6cfb241

     atomic species   valence    mass     pseudopotential
        Pd1           16.00   106.42000     Pd( 1.00)
        O1             6.00    15.99900     O ( 1.00)
        H1             1.00     1.00800     H ( 1.00)

     No symmetry found

   Cartesian axes

     site n.     atom                  positions (alat units)
         1           Pd1 tau(   1) = (   1.4094157   0.8137265  10.0000000  )
         2           Pd1 tau(   2) = (   4.2282471   0.8137265  10.0000000  )
         3           Pd1 tau(   3) = (   2.8188314   3.2549061  10.0000000  )
         4           Pd1 tau(   4) = (   5.6376627   3.2549061  10.0000000  )
         5           Pd1 tau(   5) = (   5.6376627   1.6274531  12.3015662  )
         6           Pd1 tau(   6) = (   2.8188314   1.6274531  12.3015662  )
         7           Pd1 tau(   7) = (   7.0470784   4.0686326  12.3015662  )
         8           Pd1 tau(   8) = (   4.2282471   4.0686326  12.3015662  )
         9           Pd1 tau(   9) = (   0.0000000   0.0000000  14.6031324  )
        10           Pd1 tau(  10) = (   2.8188314   0.0000000  14.6031324  )
        11           Pd1 tau(  11) = (   1.4094157   2.4411796  14.6031324  )
        12           Pd1 tau(  12) = (   4.2282471   2.4411796  14.6031324  )
        13           O1  tau(  13) = (   0.0000000   0.0000000  16.3456324  )
        14           H1  tau(  14) = (   0.0000000   0.0000000  17.2956324  )

     number of k points=    20  Fermi-Dirac smearing, width (Ry)=  0.0110
                       cart. coord. in units 2pi/alat
        k(    1) = (   0.0000000   0.0000000   0.0000000), wk =   0.0555556
        k(    2) = (   0.0000000   0.0341365   0.0000000), wk =   0.1111111
        k(    3) = (   0.0000000   0.0682730   0.0000000), wk =   0.1111111
        k(    4) = (   0.0000000  -0.1024095   0.0000000), wk =   0.0555556
        k(    5) = (   0.0295631  -0.0170683   0.0000000), wk =   0.1111111
        k(    6) = (   0.0295631   0.0170683   0.0000000), wk =   0.1111111
        k(    7) = (   0.0295631   0.0512048   0.0000000), wk =   0.1111111
        k(    8) = (   0.0295631  -0.1194778   0.0000000), wk =   0.1111111
        k(    9) = (   0.0295631  -0.0853413   0.0000000), wk =   0.1111111
        k(   10) = (   0.0295631  -0.0512048   0.0000000), wk =   0.1111111
        k(   11) = (   0.0591262  -0.0341365   0.0000000), wk =   0.1111111
        k(   12) = (   0.0591262  -0.0000000   0.0000000), wk =   0.1111111
        k(   13) = (   0.0591262   0.0341365   0.0000000), wk =   0.1111111
        k(   14) = (   0.0591262  -0.1365460   0.0000000), wk =   0.1111111
        k(   15) = (   0.0591262  -0.1024095   0.0000000), wk =   0.1111111
        k(   16) = (   0.0591262  -0.0682730   0.0000000), wk =   0.1111111
        k(   17) = (  -0.0886892   0.0512048   0.0000000), wk =   0.0555556
        k(   18) = (  -0.0886892   0.0853413   0.0000000), wk =   0.1111111
        k(   19) = (  -0.0886892   0.1194778   0.0000000), wk =   0.1111111
        k(   20) = (  -0.0886892  -0.0512048   0.0000000), wk =   0.0555556

     Largest allocated arrays     est. size (Mb)     dimensions
     Largest temporary arrays     est. size (Mb)     dimensions

     Initial potential from superposition of free atoms
     Check: negative starting charge=   -0.904082

     starting charge  192.99991, renormalised to  199.00000

     negative rho (up, down):  9.322E-01 0.000E+00

     *
     * You are using vdW-DF for exchange-correlation in this calculation.
     * Please cite the following three references that made this development
     * possible:
     *
     *   M. Dion, H. Rydberg, E. Schroder, D. C. Langreth, and
     *   B. I. Lundqvist, Phys. Rev. Lett. 92, 246401 (2004).
     *
     *   T. Thonhauser, V. R. Cooper, S. Li, A. Puzder, P. Hyldgaard, and
     *   D. C. Langreth, Phys. Rev. B 76, 125112 (2007).
     *
     *   G. Roman-Perez and J. M. Soler, Phys. Rev. Lett. 103, 096102 (2009).
     *
     *
     * If you are using vdW-DF2, please also cite:
     *
     *   K. Lee, E. D. Murray, L. Kong, B. I. Lundqvist, and
     *   D. C. Langreth, Phys. Rev. B 82, 081101(R) (2010).
     *
     *
     * If you are calculating the stress with vdW-DF, please also cite:
     *
     *   R. Sabatini, E. Kucukbenli, B. Kolb, T. Thonhauser, and
     *   S. de Gironcoli, J. Phys.: Condens. Matter 24, 424209 (2012).
     *

     Carrying out vdW-DF run using the following parameters:

     Nqs =      20    Nr_points =    1024   r_max =   100.000
     q_mesh =
               0.00001000     0.04494208     0.09755937     0.15916263
               0.23128650     0.31572767     0.41458969     0.53033537
               0.66584808     0.82450364     1.01025438     1.22772762
               1.48234092     1.78043706     2.12944203     2.53805004
               3.01644009     3.57652955     4.23227104     5.00000000

     Gradients computed in reciprocal space

     Adding external electric field

     Computed dipole along edir(3) :
        Dipole               -1.7188 Ry au,         -4.3688 Debye
        Dipole field         -0.0047 Ry au

        Potential amp.        0.4285 Ry
        Total length         45.3309 bohr

     Starting wfc are  149 randomized atomic wfcs

     Self-consistent Calculation

     iteration #  1     ecut=    36.75 Ry     beta=0.30
     Davidson diagonalization with overlap
     ethr =  1.00E-02,  avg # of iterations =  5.3

[...]

     total energy              =   -2362.48487636 Ry
     Harris-Foulkes estimate   =   -2432.93035070 Ry
     estimated scf accuracy    <     148.67733098 Ry

[...]

     End of self-consistent calculation

          k = 0.0000 0.0000 0.0000 ( 17231 PWs)   bands (ev):

   -49.6573 -49.0658 -49.0658 -48.6159 -48.5706 -48.5706 -48.5030 -48.4780
   -48.4780 -48.4401 -48.4161 -48.4160 -48.3963 -48.3349 -48.3348 -48.3181
   -48.3111 -48.3105 -48.2678 -48.1761 -48.1761 -48.1535 -48.1439 -48.1433
   -48.0875 -48.0874 -48.0779 -48.0593 -48.0592 -48.0171 -47.9960 -47.9951
   -47.9790 -47.9757 -47.9656 -47.9656 -18.2681  -7.4731  -4.3701  -3.4704
    -3.4704  -3.2572  -3.0918  -3.0560  -3.0269  -3.0268  -2.8943  -2.8942
    -2.8599  -2.6848  -2.5817  -2.5816  -2.5089  -2.4523  -2.4522  -1.5621
    -1.3672  -1.3671  -1.2784  -1.1288  -1.1014  -1.1014  -1.0399  -1.0399
    -0.9221  -0.9221  -0.7794  -0.7794  -0.7643  -0.6798  -0.6797  -0.5485
    -0.1014  -0.1011   0.1522   0.2287   0.2288   0.2717   0.2717   0.2864
     0.5039   0.6291   0.6293   0.7754   0.7755   1.0462   1.0463   1.0608
     1.1191   1.1192   1.1394   1.1394   1.1971   1.2865   1.2865   1.3125
     1.3812   1.3812   1.5316   1.5500   1.5504   1.5796   2.1253   3.2134
     3.6558   3.8084   3.8085   4.8789   5.0268

[...]

          k =-0.0887 0.0512 0.0000 ( 17240 PWs)   bands (ev):

[...]

     the Fermi energy is     1.3276 ev

!    total energy              =   -2431.04523557 Ry
     Harris-Foulkes estimate   =   -2431.04525560 Ry
     estimated scf accuracy    <       0.00000563 Ry

     The total energy is the sum of the following terms:

     one-electron contribution =  -20691.40720784 Ry
     hartree contribution      =   10400.25914885 Ry
     xc contribution           =    -398.57799643 Ry
     ewald contribution        =    8258.80391246 Ry
     electric field correction =       0.00015807 Ry
     smearing contrib. (-TS)   =      -0.12325068 Ry

     convergence has been achieved in  21 iterations

 BEEF-vdW xc energy contributions
           1 :   -346.861155256704
           2 :    316.617519529337
           3 :   -265.177266248199
           4 :    206.503899934006
           5 :   -153.936925661532
           6 :    115.845911117478
           7 :   -93.9262504504436
           8 :    84.3113635149978
           9 :   -80.5743668442023
          10 :    77.0335565802428
          11 :   -70.9008938413344
          12 :    62.5592554900246
          13 :   -54.2602981468683
          14 :    48.2381663296410
          15 :   -45.3406764385990
          16 :    44.7687875761198
          17 :   -44.8063017027980
          18 :    43.9250363105455
          19 :   -41.5801608445209
          20 :    38.3020894940349
          21 :   -35.1619177593376
          22 :    33.0257041496076
          23 :   -32.0627254214149
          24 :    31.7485209164539
          25 :   -31.2868278333218
          26 :    30.1347515002628
          27 :   -28.3008619300146
          28 :    26.2656312575318
          29 :   -24.6177503506242
          30 :    23.6594102061997
          31 :   -33.8855257807593
          32 :   -24.9600112002785

     Forces acting on atoms (Ry/au):

     negative rho (up, down):  9.423E-01 0.000E+00
     atom    1 type  1   force =    -0.00001614   -0.00000452    0.00095735
     atom    2 type  1   force =     0.00000869   -0.00002240    0.00100764
     atom    3 type  1   force =    -0.00000340    0.00003874    0.00095374
     atom    4 type  1   force =     0.00001265   -0.00000227   -0.00125843
     atom    5 type  1   force =    -0.00004621   -0.00338395    0.00183934
     atom    6 type  1   force =     0.00003419   -0.00000201   -0.00229366
     atom    7 type  1   force =     0.00294553    0.00173153    0.00182510
     atom    8 type  1   force =    -0.00292314    0.00166326    0.00186103
     atom    9 type  1   force =    -0.00001218   -0.00000442   -0.24635429
     atom   10 type  1   force =     0.00001096   -0.00165787   -0.00576814
     atom   11 type  1   force =    -0.00143455    0.00083172   -0.00578035
     atom   12 type  1   force =     0.00142777    0.00081815   -0.00575929
     atom   13 type  2   force =    -0.00000384   -0.00000342    0.22293454
     atom   14 type  3   force =    -0.00000032   -0.00000254    0.03583542

     Total force =     0.334339     Total SCF correction =     0.012226

     entering subroutine stress ...

     negative rho (up, down):  9.423E-01 0.000E+00
          total   stress  (Ry/bohr**3)                   (kbar)     P=    0.75
  -0.00007919   0.00000001   0.00000001        -11.65      0.00      0.00
   0.00000001  -0.00007922   0.00000000          0.00    -11.65      0.00
   0.00000001   0.00000000   0.00017379          0.00      0.00     25.57

     BFGS Geometry Optimization

     number of scf cycles    =   1
     number of bfgs steps    =   0

     energy   new            =   -2431.0452355682 Ry

     new trust radius        =       0.2463542927 bohr
     new conv_thr            =       0.0000099958 Ry

ATOMIC_POSITIONS (crystal)
Pd1      0.166666667   0.166666667   0.406452311    0   0   0
Pd1      0.666666667   0.166666667   0.406452311    0   0   0
Pd1      0.166666667   0.666666667   0.406452311    0   0   0
Pd1      0.666666667   0.666666667   0.406452311    0   0   0
Pd1      0.833333333   0.333333333   0.500000000    0   0   0
Pd1      0.333333333   0.333333333   0.500000000    0   0   0
Pd1      0.833333333   0.833333333   0.500000000    0   0   0
Pd1      0.333333333   0.833333333   0.500000000    0   0   0
Pd1     -0.000000904  -0.000000479   0.588248970
Pd1      0.500090873  -0.000179689   0.593423625
Pd1     -0.000179727   0.500090146   0.593423362
Pd1      0.500089679   0.500088675   0.593423815
O1      -0.000000175  -0.000000371   0.669166998
H1       0.000000108  -0.000000276   0.703755741

     Writing output data file calc.save
     Check: negative starting charge=   -0.904082
     NEW-OLD atomic charge density approx. for the potential
     Check: negative starting charge=   -0.906310

[...]

     energy   old            =   -2431.0452355682 Ry
     energy   new            =   -2431.0573501734 Ry

     CASE: energy  _new < energy  _old

[...]

     WARNING: bfgs curvature condition failed, Theta= 0.873
     new trust radius        =       0.0164627800 bohr
     new conv_thr            =       0.0000001000 Ry

[...]

     Total force =     0.008309     Total SCF correction =     0.001534
     SCF correction compared to forces is large: reduce conv_thr to get better values

[...]

     number of scf cycles    =  11
     number of bfgs steps    =  10

     energy   old            =   -2431.0961528379 Ry
     energy   new            =   -2431.0969190208 Ry

     CASE: energy  _new < energy  _old

     new trust radius        =       0.0664273672 bohr
     new conv_thr            =       0.0000001000 Ry

ATOMIC_POSITIONS (crystal)
Pd1      0.166666667   0.166666667   0.406452311    0   0   0
Pd1      0.666666667   0.166666667   0.406452311    0   0   0
Pd1      0.166666667   0.666666667   0.406452311    0   0   0
Pd1      0.666666667   0.666666667   0.406452311    0   0   0
Pd1      0.833333333   0.333333333   0.500000000    0   0   0
Pd1      0.333333333   0.333333333   0.500000000    0   0   0
Pd1      0.833333333   0.833333333   0.500000000    0   0   0
Pd1      0.333333333   0.833333333   0.500000000    0   0   0
Pd1      0.000000717   0.000000629   0.592624695
Pd1      0.500477148  -0.000957407   0.592798079
Pd1     -0.000956491   0.500476022   0.592798255
Pd1      0.500480084   0.500478228   0.592797941
O1      -0.000001349   0.000000044   0.674396206
H1       0.000001182  -0.000000956   0.713755457

     Writing output data file calc.save
     Check: negative starting charge=   -0.907139
     NEW-OLD atomic charge density approx. for the potential
     Check: negative starting charge=   -0.907759

[...]

     Self-consistent Calculation

[...]

     total energy              =   -2431.09712615 Ry
     Harris-Foulkes estimate   =   -2431.09712488 Ry
     estimated scf accuracy    <       0.00000039 Ry

     iteration # 16     ecut=    36.75 Ry     beta=0.30
     Davidson diagonalization with overlap
     ethr =  1.21E-10,  avg # of iterations =  1.0

[...]

     negative rho (up, down):  9.458E-01 0.000E+00

     Adding external electric field

     Computed dipole along edir(3) :
        Dipole                0.0249 Ry au,          0.0634 Debye
        Dipole field          0.0001 Ry au

        Potential amp.       -0.0062 Ry
        Total length         45.3309 bohr

     End of self-consistent calculation

[...]

          k = 0.0591-0.0683 0.0000 ( 17183 PWs)   bands (ev):

[...]

          k =-0.0887-0.0512 0.0000 ( 17240 PWs)   bands (ev):

   -49.2224 -49.0387 -49.0277 -48.9136 -48.8794 -48.8552 -48.8498 -48.8379
   -48.8362 -48.8246 -48.8122 -48.7996 -48.7798 -48.7476 -48.7110 -48.6208
   -48.6119 -48.5832 -48.5513 -48.5457 -48.5370 -48.5226 -48.5136 -48.4943
   -48.4858 -48.4697 -48.4643 -48.4546 -48.4228 -48.3492 -48.3453 -48.3377
   -48.3257 -48.3192 -48.3150 -48.3103 -17.0916  -5.6988  -3.3741  -3.3538
    -2.8958  -2.8321  -2.8027  -2.7688  -2.7009  -2.5958  -2.5255  -2.4899
    -2.4173  -2.3950  -2.3069  -2.2430  -2.1907  -2.1153  -1.9696  -1.8822
    -1.7941  -1.7487  -1.7273  -1.7130  -1.6083  -1.5193  -1.4462  -1.3696
    -1.1861  -1.1776  -1.0720  -1.0381  -0.9825  -0.9681  -0.9128  -0.8939
    -0.8747  -0.8073  -0.7852  -0.7833  -0.7471  -0.6353  -0.5049  -0.4662
    -0.3972  -0.3126  -0.2651  -0.1731  -0.1692  -0.1414  -0.0697  -0.0629
    -0.0507   0.0079   0.0802   0.2497   0.3089   0.3379   0.3944   0.5533
     0.7791   0.7856   0.8579   0.8649   1.0166   1.0335   1.1923   1.4138
     3.4437   3.4722   3.5573   3.7844   4.6737

     the Fermi energy is     0.9882 ev

!    total energy              =   -2431.09712615 Ry
     Harris-Foulkes estimate   =   -2431.09712615 Ry
     estimated scf accuracy    <          4.8E-09 Ry

     The total energy is the sum of the following terms:

     one-electron contribution =  -20632.42635150 Ry
     hartree contribution      =   10369.20324455 Ry
     xc contribution           =    -398.44092773 Ry
     ewald contribution        =    8230.69601882 Ry
     electric field correction =       0.00000171 Ry
     smearing contrib. (-TS)   =      -0.12911201 Ry

     convergence has been achieved in  16 iterations

 BEEF-vdW xc energy contributions
           1 :   -346.711797173646
           2 :    316.401986035066
           3 :   -264.899486676750
           4 :    206.235499816509
           5 :   -153.761176448356
           6 :    115.805158405433
           7 :   -94.0052172661353
           8 :    84.4553977387922
           9 :   -80.7210317572047
          10 :    77.1390802124969
          11 :   -70.9516783927403
          12 :    62.5673376996452
          13 :   -54.2493173451026
          14 :    48.2284968605333
          15 :   -45.3406378312566
          16 :    44.7770878496645
          17 :   -44.8213880510575
          18 :    43.9498341086179
          19 :   -41.6182393117209
          20 :    38.3520702186131
          21 :   -35.2170838143751
          22 :    33.0788819283650
          23 :   -32.1115024482676
          24 :    31.7962872113768
          25 :   -31.3388699599438
          26 :    30.1928249437837
          27 :   -28.3591093357449
          28 :    26.3108727147247
          29 :   -24.6369146228297
          30 :    23.6501472815642
          31 :   -33.8768637266167
          32 :   -24.9382554159253

     Forces acting on atoms (Ry/au):

     negative rho (up, down):  9.458E-01 0.000E+00
     atom    1 type  1   force =     0.00000805    0.00000515    0.00096051
     atom    2 type  1   force =    -0.00000746    0.00000651    0.00095969
     atom    3 type  1   force =     0.00000122   -0.00001030    0.00095889
     atom    4 type  1   force =    -0.00000131   -0.00000152   -0.00078053
     atom    5 type  1   force =     0.00000469   -0.00260844   -0.00085108
     atom    6 type  1   force =    -0.00000426   -0.00000025   -0.00364807
     atom    7 type  1   force =     0.00225862    0.00130136   -0.00084734
     atom    8 type  1   force =    -0.00225935    0.00130713   -0.00085324
     atom    9 type  1   force =    -0.00000056   -0.00000120    0.00049622
     atom   10 type  1   force =     0.00000205    0.00070121    0.00110095
     atom   11 type  1   force =     0.00060811   -0.00034852    0.00110051
     atom   12 type  1   force =    -0.00060886   -0.00035111    0.00109968
     atom   13 type  2   force =    -0.00000236    0.00000032    0.00053453
     atom   14 type  3   force =     0.00000142   -0.00000033   -0.00023072

     Total force =     0.002386     Total SCF correction =     0.000099

     entering subroutine stress ...

     negative rho (up, down):  9.458E-01 0.000E+00
          total   stress  (Ry/bohr**3)                   (kbar)     P=   -8.22
  -0.00007644   0.00000000   0.00000000        -11.25      0.00      0.00
   0.00000000  -0.00007644   0.00000000          0.00    -11.25      0.00
   0.00000000   0.00000000  -0.00001484          0.00      0.00     -2.18

     bfgs converged in  12 scf cycles and  11 bfgs steps
     (criteria: energy <  1.0E+00, force <  1.9E-03)

     End of BFGS Geometry Optimization

     Final energy   =   -2431.0971261530 Ry
Begin final coordinates

ATOMIC_POSITIONS (crystal)
Pd1      0.166666667   0.166666667   0.406452311    0   0   0
Pd1      0.666666667   0.166666667   0.406452311    0   0   0
Pd1      0.166666667   0.666666667   0.406452311    0   0   0
Pd1      0.666666667   0.666666667   0.406452311    0   0   0
Pd1      0.833333333   0.333333333   0.500000000    0   0   0
Pd1      0.333333333   0.333333333   0.500000000    0   0   0
Pd1      0.833333333   0.833333333   0.500000000    0   0   0
Pd1      0.333333333   0.833333333   0.500000000    0   0   0
Pd1      0.000000717   0.000000629   0.592624695
Pd1      0.500477148  -0.000957407   0.592798079
Pd1     -0.000956491   0.500476022   0.592798255
Pd1      0.500480084   0.500478228   0.592797941
O1      -0.000001349   0.000000044   0.674396206
H1       0.000001182  -0.000000956   0.713755457
End final coordinates

     Writing output data file calc.save

     General routines

     Parallel routines

   This run was terminated on:  22:11: 5  21Apr2018

   JOB DONE.
Job  /afs/slac/g/suncat/bin/suncat-tsmpirun -x LD_LIBRARY_PATH -wdir /scratch/qe394314_ZeRPU pw.x -npool 4 -in pw.inp

TID   HOST_NAME   COMMAND_LINE            STATUS            TERMINATION_TIME
00000 suncat0176 pw.x -npool 4 -i  Done                     04/21/2018 22:11:05
00001 suncat0176 pw.x -npool 4 -i  Done                     04/21/2018 22:11:05
00002 suncat0176 pw.x -npool 4 -i  Done                     04/21/2018 22:11:05
00003 suncat0176 pw.x -npool 4 -i  Done                     04/21/2018 22:11:05
00004 suncat0176 pw.x -npool 4 -i  Done                     04/21/2018 22:11:05
00005 suncat0176 pw.x -npool 4 -i  Done                     04/21/2018 22:11:05
00006 suncat0176 pw.x -npool 4 -i  Done                     04/21/2018 22:11:05
00007 suncat0176 pw.x -npool 4 -i  Done                     04/21/2018 22:11:05
00008 suncat0163 pw.x -npool 4 -i  Done                     04/21/2018 22:11:05
00009 suncat0163 pw.x -npool 4 -i  Done                     04/21/2018 22:11:05
00010 suncat0163 pw.x -npool 4 -i  Done                     04/21/2018 22:11:05
00011 suncat0163 pw.x -npool 4 -i  Done                     04/21/2018 22:11:05
00012 suncat0163 pw.x -npool 4 -i  Done                     04/21/2018 22:11:05
00013 suncat0163 pw.x -npool 4 -i  Done                     04/21/2018 22:11:05
00014 suncat0163 pw.x -npool 4 -i  Done                     04/21/2018 22:11:05
00015 suncat0163 pw.x -npool 4 -i  Done                     04/21/2018 22:11:05
00016 suncat0145 pw.x -npool 4 -i  Done                     04/21/2018 22:11:05
00017 suncat0145 pw.x -npool 4 -i  Done                     04/21/2018 22:11:05
00018 suncat0145 pw.x -npool 4 -i  Done                     04/21/2018 22:11:05
00019 suncat0145 pw.x -npool 4 -i  Done                     04/21/2018 22:11:05
00020 suncat0145 pw.x -npool 4 -i  Done                     04/21/2018 22:11:05
00021 suncat0145 pw.x -npool 4 -i  Done                     04/21/2018 22:11:05
00022 suncat0145 pw.x -npool 4 -i  Done                     04/21/2018 22:11:05
00023 suncat0145 pw.x -npool 4 -i  Done                     04/21/2018 22:11:05
00024 suncat0138 pw.x -npool 4 -i  Done                     04/21/2018 22:11:05
00025 suncat0138 pw.x -npool 4 -i  Done                     04/21/2018 22:11:05
00026 suncat0138 pw.x -npool 4 -i  Done                     04/21/2018 22:11:05
00027 suncat0138 pw.x -npool 4 -i  Done                     04/21/2018 22:11:05
00028 suncat0138 pw.x -npool 4 -i  Done                     04/21/2018 22:11:05
00029 suncat0138 pw.x -npool 4 -i  Done                     04/21/2018 22:11:05
00030 suncat0138 pw.x -npool 4 -i  Done                     04/21/2018 22:11:05
00031 suncat0138 pw.x -npool 4 -i  Done                     04/21/2018 22:11:05