     Program PWSCF v.5.1rc2 (svn rev. ) starts on 18Apr2018 at  9: 5:49

     Current dimensions of program PWSCF are:
     Max number of different atomic species (ntypx) = 10
     Max number of k-points (npk) =  40000
     Max angular momentum in pseudopotentials (lmaxx) =  3
     Presently stress not available with electric field

     IMPORTANT: XC functional enforced from input :
     Exchange-correlation      = BEEF-VDW ( 1  4 27 13 2)
     Any further DFT definition will be discarded
     Please, verify this is what you really want

     Subspace diagonalization in iterative solution of the eigenvalue problem:
     a serial algorithm will be used

     bravais-lattice index     =            0
     lattice parameter (alat)  =       1.8897  a.u.
     unit-cell volume          =    6501.5726 (a.u.)^3
     number of atoms/cell      =           14
     number of atomic types    =            3
     number of electrons       =       162.00
     number of Kohn-Sham states=           91
     kinetic-energy cutoff     =      36.7493  Ry
     charge density cutoff     =     367.4932  Ry
     convergence threshold     =      1.0E-05
     mixing beta               =       0.3000
     number of iterations used =           10  plain     mixing
     Exchange-correlation      = BEEF-VDW ( 1  4 27 13 2)
     nstep                     =           50

     celldm(1)=   1.889726  celldm(2)=   0.000000  celldm(3)=   0.000000
     celldm(4)=   0.000000  celldm(5)=   0.000000  celldm(6)=   0.000000

     crystal axes: (cart. coord. in units of alat)
               a(1) = (   6.617606   0.000000   0.000000 )
               a(2) = (   3.308803   5.731015   0.000000 )
               a(3) = (   0.000000   0.000000  25.403253 )

     reciprocal axes: (cart. coord. in units 2 pi/alat)
               b(1) = (  0.151112 -0.087245  0.000000 )
               b(2) = (  0.000000  0.174489  0.000000 )
               b(3) = (  0.000000  0.000000  0.039365 )

     PseudoPot. # 1 for In read from file:
     /home/mamunm/src/pseudo/gbrv1.5pbe/In.UPF
     MD5 check sum: 90777abd96fbb83f2e67db2a40c566b9
     Pseudo is Ultrasoft + core correction, Zval = 13.0
     Generated by new atomic code, or converted to UPF format
     Using radial grid of  889 points,  6 beta functions with:
                l(1) =   0
                l(2) =   0
                l(3) =   1
                l(4) =   1
                l(5) =   2
                l(6) =   2
     Q(r) pseudized with  6 coefficients,  rinner =    1.400   1.400   1.400
                                                       1.400   1.400

     PseudoPot. # 2 for N  read from file:
     /home/mamunm/src/pseudo/gbrv1.5pbe/N.UPF
     MD5 check sum: 95339753478d7afb44899504a8723017
     Pseudo is Ultrasoft + core correction, Zval =  5.0
     Generated by new atomic code, or converted to UPF format
     Using radial grid of  729 points,  4 beta functions with:
                l(1) =   0
                l(2) =   0
                l(3) =   1
                l(4) =   1
     Q(r) pseudized with  8 coefficients,  rinner =    0.900   0.900   0.900

     PseudoPot. # 3 for H  read from file:
     /home/mamunm/src/pseudo/gbrv1.5pbe/H.UPF
     MD5 check sum: 761ae9a214b05c3daf00ab9f6b793d6f
     Pseudo is Ultrasoft, Zval =  1.0
     Generated by new atomic code, or converted to UPF format
     Using radial grid of  615 points,  2 beta functions with:
                l(1) =   0
                l(2) =   0
     Q(r) pseudized with  8 coefficients,  rinner =    0.700

     vdW kernel table read from file vdW_kernel_table
     MD5 check sum: 095c7af220d748ca6e76c0b4c6cfb241

     atomic species   valence    mass     pseudopotential
        In1           13.00   114.81800     In( 1.00)
        N1             5.00    14.00700     N ( 1.00)
        H1             1.00     1.00800     H ( 1.00)

     No symmetry found

   Cartesian axes

     site n.     atom                  positions (alat units)
         1           In1 tau(   1) = (   1.6544016   0.9551692  10.0000000  )
         2           In1 tau(   2) = (   4.9632047   0.9551692  10.0000000  )
         3           In1 tau(   3) = (   3.3088031   3.8206768  10.0000000  )
         4           In1 tau(   4) = (   6.6176063   3.8206768  10.0000000  )
         5           In1 tau(   5) = (   6.6176063   1.9103384  12.7016265  )
         6           In1 tau(   6) = (   3.3088031   1.9103384  12.7016265  )
         7           In1 tau(   7) = (   8.2720078   4.7758460  12.7016265  )
         8           In1 tau(   8) = (   4.9632047   4.7758460  12.7016265  )
         9           In1 tau(   9) = (   0.0000000   0.0000000  15.4032529  )
        10           In1 tau(  10) = (   3.3088031   0.0000000  15.4032529  )
        11           In1 tau(  11) = (   1.6544016   2.8655076  15.4032529  )
        12           In1 tau(  12) = (   4.9632047   2.8655076  15.4032529  )
        13           N1  tau(  13) = (   0.0000000   0.0000000  17.2137529  )
        14           H1  tau(  14) = (   0.0000000   0.0000000  18.2637529  )

     number of k points=    20  Fermi-Dirac smearing, width (Ry)=  0.0110
                       cart. coord. in units 2pi/alat
        k(    1) = (   0.0000000   0.0000000   0.0000000), wk =   0.0555556
        k(    2) = (   0.0000000   0.0290815   0.0000000), wk =   0.1111111
        k(    3) = (   0.0000000   0.0581631   0.0000000), wk =   0.1111111
        k(    4) = (   0.0000000  -0.0872446   0.0000000), wk =   0.0555556
        k(    5) = (   0.0251853  -0.0145408   0.0000000), wk =   0.1111111
        k(    6) = (   0.0251853   0.0145408   0.0000000), wk =   0.1111111
        k(    7) = (   0.0251853   0.0436223   0.0000000), wk =   0.1111111
        k(    8) = (   0.0251853  -0.1017853   0.0000000), wk =   0.1111111
        k(    9) = (   0.0251853  -0.0727038   0.0000000), wk =   0.1111111
        k(   10) = (   0.0251853  -0.0436223   0.0000000), wk =   0.1111111
        k(   11) = (   0.0503707  -0.0290815   0.0000000), wk =   0.1111111
        k(   12) = (   0.0503707   0.0000000   0.0000000), wk =   0.1111111
        k(   13) = (   0.0503707   0.0290815   0.0000000), wk =   0.1111111
        k(   14) = (   0.0503707  -0.1163261   0.0000000), wk =   0.1111111
        k(   15) = (   0.0503707  -0.0872446   0.0000000), wk =   0.1111111
        k(   16) = (   0.0503707  -0.0581631   0.0000000), wk =   0.1111111
        k(   17) = (  -0.0755560   0.0436223   0.0000000), wk =   0.0555556
        k(   18) = (  -0.0755560   0.0727038   0.0000000), wk =   0.1111111
        k(   19) = (  -0.0755560   0.1017853   0.0000000), wk =   0.1111111
        k(   20) = (  -0.0755560  -0.0436223   0.0000000), wk =   0.0555556

     Largest allocated arrays     est. size (Mb)     dimensions
     Largest temporary arrays     est. size (Mb)     dimensions

     Initial potential from superposition of free atoms
     Check: negative starting charge=   -0.000161

     starting charge  143.99998, renormalised to  162.00000

     negative rho (up, down):  1.810E-04 0.000E+00

     *
     * You are using vdW-DF for exchange-correlation in this calculation.
     * Please cite the following three references that made this development
     * possible:
     *
     *   M. Dion, H. Rydberg, E. Schroder, D. C. Langreth, and
     *   B. I. Lundqvist, Phys. Rev. Lett. 92, 246401 (2004).
     *
     *   T. Thonhauser, V. R. Cooper, S. Li, A. Puzder, P. Hyldgaard, and
     *   D. C. Langreth, Phys. Rev. B 76, 125112 (2007).
     *
     *   G. Roman-Perez and J. M. Soler, Phys. Rev. Lett. 103, 096102 (2009).
     *
     *
     * If you are using vdW-DF2, please also cite:
     *
     *   K. Lee, E. D. Murray, L. Kong, B. I. Lundqvist, and
     *   D. C. Langreth, Phys. Rev. B 82, 081101(R) (2010).
     *
     *
     * If you are calculating the stress with vdW-DF, please also cite:
     *
     *   R. Sabatini, E. Kucukbenli, B. Kolb, T. Thonhauser, and
     *   S. de Gironcoli, J. Phys.: Condens. Matter 24, 424209 (2012).
     *

     Carrying out vdW-DF run using the following parameters:

     Nqs =      20    Nr_points =    1024   r_max =   100.000
     q_mesh =
               0.00001000     0.04494208     0.09755937     0.15916263
               0.23128650     0.31572767     0.41458969     0.53033537
               0.66584808     0.82450364     1.01025438     1.22772762
               1.48234092     1.78043706     2.12944203     2.53805004
               3.01644009     3.57652955     4.23227104     5.00000000

     Gradients computed in reciprocal space

     Adding external electric field

     Computed dipole along edir(3) :
        Dipole               -6.6429 Ry au,        -16.8845 Debye
        Dipole field         -0.0128 Ry au

        Potential amp.        1.2019 Ry
        Total length         46.8051 bohr

     Starting wfc are  113 randomized atomic wfcs

     Self-consistent Calculation

     iteration #  1     ecut=    36.75 Ry     beta=0.30
     Davidson diagonalization with overlap
     ethr =  1.00E-02,  avg # of iterations =  7.8

[...]

     total energy              =   -1170.69730880 Ry
     Harris-Foulkes estimate   =   -1631.90509101 Ry
     estimated scf accuracy    <     983.85087041 Ry

     iteration #  2     ecut=    36.75 Ry     beta=0.30
     Davidson diagonalization with overlap
     c_bands:  3 eigenvalues not converged
     c_bands:  2 eigenvalues not converged
     c_bands:  3 eigenvalues not converged
     c_bands:  5 eigenvalues not converged
     ethr =  1.00E-02,  avg # of iterations = 21.6

[...]

     End of self-consistent calculation

          k = 0.0000 0.0000 0.0000 ( 24345 PWs)   bands (ev):

   -15.6090 -14.7534 -14.7534 -14.7466 -14.6695 -14.6558 -14.6558 -14.6459
   -14.6459 -14.6459 -14.6374 -14.6233 -14.6065 -14.6065 -14.5921 -14.5742
   -14.5742 -14.5662 -14.5639 -14.5639 -14.5351 -14.5323 -14.5323 -14.5305
   -14.5229 -14.5229 -14.4940 -14.4940 -14.4882 -14.4851 -14.4851 -14.4040
   -14.4040 -14.4022 -14.3749 -14.3749 -14.3392 -14.3392 -14.3236 -14.3236
   -14.3076 -14.3073 -14.3073 -14.3055 -14.2846 -14.2846 -14.2666 -14.2630
   -14.2546 -14.2546 -14.2504 -14.2504 -14.2263 -14.2210 -14.2150 -14.2149
   -14.1105 -14.1105 -14.0873 -14.0873 -12.5772  -8.7718  -7.4460  -5.8305
    -4.7192  -3.9486  -3.9486  -3.8755  -3.6532  -3.6532  -3.3422  -2.4423
    -2.4423  -2.2491  -2.2491  -2.1873  -1.9402  -1.3229  -0.8975  -0.8975
    -0.4188  -0.4188  -0.3102   0.5887   0.5887   0.6607   1.6011   3.1262
     3.2382   3.2382   3.3837

[...]

          k =-0.0756 0.0436 0.0000 ( 24448 PWs)   bands (ev):

[...]

     the Fermi energy is     0.4403 ev

!    total energy              =   -1638.63667293 Ry
     Harris-Foulkes estimate   =   -1638.63671782 Ry
     estimated scf accuracy    <       0.00000886 Ry

     The total energy is the sum of the following terms:

     one-electron contribution =   -9419.05451277 Ry
     hartree contribution      =    4790.84635220 Ry
     xc contribution           =    -475.92113654 Ry
     ewald contribution        =    3465.53337118 Ry
     electric field correction =       0.00008081 Ry
     smearing contrib. (-TS)   =      -0.04082782 Ry

     convergence has been achieved in  21 iterations

 BEEF-vdW xc energy contributions
           1 :   -416.763496558829
           2 :    380.779825031973
           3 :   -320.074382037712
           4 :    251.742906262555
           5 :   -191.341292881494
           6 :    147.288965014793
           7 :   -119.317514030603
           8 :    101.072661215520
           9 :   -84.9702688849546
          10 :    66.4884457369636
          11 :   -45.7871701612611
          12 :    26.3153280103554
          13 :   -11.8142560131266
          14 :    3.78140781451634
          15 :  -0.804380671591389
          16 :  -0.202164845527705
          17 :    1.96716998251526
          18 :   -5.43920802870150
          19 :    9.72283781636139
          20 :   -13.1418281670186
          21 :    14.5377827999066
          22 :   -13.9471743804249
          23 :    12.3623214883521
          24 :   -10.9336429079236
          25 :    10.2571323410383
          26 :   -10.1968381406745
          27 :    10.2251898672244
          28 :   -9.91580910917014
          29 :    9.20651402618762
          30 :   -8.30934358181105
          31 :   -37.9815893076337
          32 :   -27.5576339725679

     Forces acting on atoms (Ry/au):

     negative rho (up, down):  1.320E-03 0.000E+00
     atom    1 type  1   force =     0.00070486    0.00040800   -0.00997161
     atom    2 type  1   force =    -0.00070570    0.00041039   -0.00997027
     atom    3 type  1   force =     0.00000071   -0.00081568   -0.00997082
     atom    4 type  1   force =    -0.00000077   -0.00000106   -0.01283344
     atom    5 type  1   force =    -0.00000002    0.00034467    0.00161524
     atom    6 type  1   force =     0.00000034    0.00000144   -0.00361865
     atom    7 type  1   force =    -0.00029766   -0.00017258    0.00161628
     atom    8 type  1   force =     0.00029783   -0.00017286    0.00161705
     atom    9 type  1   force =    -0.00000011    0.00000024   -0.16679586
     atom   10 type  1   force =     0.00000015   -0.00054255    0.01237282
     atom   11 type  1   force =    -0.00047074    0.00026982    0.01237224
     atom   12 type  1   force =     0.00047068    0.00027023    0.01237222
     atom   13 type  2   force =     0.00000027    0.00000012    0.22700645
     atom   14 type  3   force =     0.00000018   -0.00000018   -0.05581164

     Total force =     0.287972     Total SCF correction =     0.009950

     entering subroutine stress ...

     negative rho (up, down):  1.320E-03 0.000E+00
          total   stress  (Ry/bohr**3)                   (kbar)     P=   13.10
   0.00006609   0.00000000  -0.00000000          9.72      0.00     -0.00
   0.00000000   0.00006609  -0.00000000          0.00      9.72     -0.00
  -0.00000000  -0.00000000   0.00013496         -0.00     -0.00     19.85

     BFGS Geometry Optimization

     number of scf cycles    =   1
     number of bfgs steps    =   0

     energy   new            =   -1638.6366729316 Ry

     new trust radius        =       0.2270064521 bohr
     new conv_thr            =       0.0000099958 Ry

ATOMIC_POSITIONS (crystal)
In1      0.166666667   0.166666667   0.393650374    0   0   0
In1      0.666666667   0.166666667   0.393650374    0   0   0
In1      0.166666667   0.666666667   0.393650374    0   0   0
In1      0.666666667   0.666666667   0.393650374    0   0   0
In1      0.833333333   0.333333333   0.500000000    0   0   0
In1      0.333333333   0.333333333   0.500000000    0   0   0
In1      0.833333333   0.833333333   0.500000000    0   0   0
In1      0.333333333   0.833333333   0.500000000    0   0   0
In1     -0.000000020   0.000000022   0.602875088
In1      0.500025060  -0.000050096   0.606607365
In1     -0.000050100   0.500024914   0.606607353
In1      0.500025162   0.500024952   0.606607353
N1       0.000000016   0.000000011   0.682348816
H1       0.000000022  -0.000000017   0.717790699

     Writing output data file calc.save
     Check: negative starting charge=   -0.000161
     NEW-OLD atomic charge density approx. for the potential
     Check: negative starting charge=   -0.000162

[...]

     energy   old            =   -1638.6366729316 Ry
     energy   new            =   -1638.6316281288 Ry

     CASE: energy  _new > energy  _old

[...]

     CASE: energy  _new < energy  _old

[...]

     Total force =     0.004608     Total SCF correction =     0.000657
     SCF correction compared to forces is large: reduce conv_thr to get better values

[...]

     WARNING: bfgs curvature condition failed, Theta= 0.886
     new trust radius        =       0.0072969978 bohr
     new conv_thr            =       0.0000001000 Ry

[...]

     Total force =     0.004230     Total SCF correction =     0.000263

[...]

     number of scf cycles    =  25
     number of bfgs steps    =  23

     energy   old            =   -1638.6760083831 Ry
     energy   new            =   -1638.6761287793 Ry

     CASE: energy  _new < energy  _old

     new trust radius        =       0.0633947828 bohr
     new conv_thr            =       0.0000001000 Ry

ATOMIC_POSITIONS (crystal)
In1      0.166666667   0.166666667   0.393650374    0   0   0
In1      0.666666667   0.166666667   0.393650374    0   0   0
In1      0.166666667   0.666666667   0.393650374    0   0   0
In1      0.666666667   0.666666667   0.393650374    0   0   0
In1      0.833333333   0.333333333   0.500000000    0   0   0
In1      0.333333333   0.333333333   0.500000000    0   0   0
In1      0.833333333   0.833333333   0.500000000    0   0   0
In1      0.333333333   0.833333333   0.500000000    0   0   0
In1      0.000001606  -0.000005155   0.597220997
In1      0.499787882   0.000422569   0.624208863
In1      0.000423101   0.499785521   0.624209014
In1      0.499790806   0.499786369   0.624208982
N1      -0.000005497   0.000019593   0.676189757
H1       0.000002368  -0.000008603   0.716343998

     Writing output data file calc.save
     Check: negative starting charge=   -0.000170
     NEW-OLD atomic charge density approx. for the potential
     Check: negative starting charge=   -0.000167

[...]

     Self-consistent Calculation

[...]

     total energy              =   -1638.67624778 Ry
     Harris-Foulkes estimate   =   -1638.67624787 Ry
     estimated scf accuracy    <       0.00000032 Ry

     iteration # 10     ecut=    36.75 Ry     beta=0.30
     Davidson diagonalization with overlap
     ethr =  2.00E-10,  avg # of iterations =  3.2

[...]

     negative rho (up, down):  1.262E-03 0.000E+00

     Adding external electric field

     Computed dipole along edir(3) :
        Dipole               -0.1107 Ry au,         -0.2813 Debye
        Dipole field         -0.0002 Ry au

        Potential amp.        0.0200 Ry
        Total length         46.8051 bohr

     End of self-consistent calculation

[...]

          k = 0.0504-0.0582 0.0000 ( 24479 PWs)   bands (ev):

[...]

          k =-0.0756-0.0436 0.0000 ( 24448 PWs)   bands (ev):

   -14.8629 -14.4992 -14.4869 -14.4591 -14.4493 -14.4451 -14.4353 -14.4252
   -14.4232 -14.4147 -14.4039 -14.3913 -14.3871 -14.3831 -14.3745 -14.3687
   -14.3651 -14.3621 -14.3489 -14.3488 -14.3409 -14.3335 -14.3215 -14.3211
   -14.3194 -14.3179 -14.3092 -14.3032 -14.3023 -14.2982 -14.2915 -14.2888
   -14.2870 -14.2666 -14.2544 -14.2506 -14.2505 -14.2378 -14.2363 -14.2300
   -14.2223 -14.2190 -14.2066 -14.2031 -14.2028 -14.2011 -14.1895 -14.1850
   -14.1739 -14.1713 -14.1543 -14.1467 -14.1416 -14.1325 -14.1192 -14.1183
   -14.0923 -14.0864 -14.0059 -14.0023 -12.9547  -7.3013  -7.0928  -6.2894
    -5.8278  -4.9083  -4.6875  -4.6389  -4.2381  -3.9266  -3.4509  -2.7108
    -2.0027  -1.4049  -0.6489  -0.3862  -0.1350   0.1969   0.3031   0.3248
     0.7908   0.8897   1.4041   1.5523   1.9196   2.0393   2.1589   2.5543
     2.8599   2.9907   3.0228

     the Fermi energy is     0.6432 ev

!    total energy              =   -1638.67624782 Ry
     Harris-Foulkes estimate   =   -1638.67624837 Ry
     estimated scf accuracy    <       0.00000003 Ry

     The total energy is the sum of the following terms:

     one-electron contribution =   -9070.74264107 Ry
     hartree contribution      =    4617.40894179 Ry
     xc contribution           =    -475.70699540 Ry
     ewald contribution        =    3290.40559632 Ry
     electric field correction =       0.00002367 Ry
     smearing contrib. (-TS)   =      -0.04117313 Ry

     convergence has been achieved in  10 iterations

 BEEF-vdW xc energy contributions
           1 :   -416.533613691575
           2 :    380.413394144693
           3 :   -319.528326256628
           4 :    251.118708707188
           5 :   -190.830423824865
           6 :    147.038709569145
           7 :   -119.325764714221
           8 :    101.192625835425
           9 :   -85.0176840435230
          10 :    66.3678171965440
          11 :   -45.5456114870985
          12 :    26.0926578068991
          13 :   -11.7341235275553
          14 :    3.86594723080952
          15 :  -0.970745266250901
          16 :  -7.201167975358658E-002
          17 :    1.94361067510681
          18 :   -5.50808260072779
          19 :    9.81325793747783
          20 :   -13.1890429819095
          21 :    14.5285400677180
          22 :   -13.9150394244806
          23 :    12.3443926111293
          24 :   -10.9311320414563
          25 :    10.2353215548001
          26 :   -10.1228619482762
          27 :    10.1087312709718
          28 :   -9.81348481945292
          29 :    9.18069364490714
          30 :   -8.37489659709252
          31 :   -37.9622667621210
          32 :   -27.5028922478206

     Forces acting on atoms (Ry/au):

     negative rho (up, down):  1.262E-03 0.000E+00
     atom    1 type  1   force =     0.00075478    0.00043555   -0.00975384
     atom    2 type  1   force =    -0.00075485    0.00043555   -0.00975384
     atom    3 type  1   force =    -0.00000003   -0.00087168   -0.00975371
     atom    4 type  1   force =     0.00000009    0.00000036   -0.01140039
     atom    5 type  1   force =     0.00000003    0.01284371    0.00865547
     atom    6 type  1   force =    -0.00000006   -0.00000028    0.01540508
     atom    7 type  1   force =    -0.01112424   -0.00642238    0.00865322
     atom    8 type  1   force =     0.01112398   -0.00642215    0.00865369
     atom    9 type  1   force =    -0.00000149   -0.00000567    0.00020635
     atom   10 type  1   force =    -0.00000080   -0.00083519   -0.00007429
     atom   11 type  1   force =    -0.00072516    0.00041465   -0.00007409
     atom   12 type  1   force =     0.00072471    0.00041531   -0.00007423
     atom   13 type  2   force =     0.00000532    0.00002123   -0.00083899
     atom   14 type  3   force =    -0.00000228   -0.00000902    0.00014956

     Total force =     0.001697     Total SCF correction =     0.000181
     SCF correction compared to forces is large: reduce conv_thr to get better values

     entering subroutine stress ...

     negative rho (up, down):  1.262E-03 0.000E+00
          total   stress  (Ry/bohr**3)                   (kbar)     P=    5.65
   0.00004537  -0.00000000   0.00000000          6.67     -0.00      0.00
  -0.00000000   0.00004537   0.00000000         -0.00      6.67      0.00
   0.00000000   0.00000000   0.00002443          0.00      0.00      3.59

     bfgs converged in  26 scf cycles and  24 bfgs steps
     (criteria: energy <  1.0E+00, force <  1.9E-03)

     End of BFGS Geometry Optimization

     Final energy   =   -1638.6762478223 Ry
Begin final coordinates

ATOMIC_POSITIONS (crystal)
In1      0.166666667   0.166666667   0.393650374    0   0   0
In1      0.666666667   0.166666667   0.393650374    0   0   0
In1      0.166666667   0.666666667   0.393650374    0   0   0
In1      0.666666667   0.666666667   0.393650374    0   0   0
In1      0.833333333   0.333333333   0.500000000    0   0   0
In1      0.333333333   0.333333333   0.500000000    0   0   0
In1      0.833333333   0.833333333   0.500000000    0   0   0
In1      0.333333333   0.833333333   0.500000000    0   0   0
In1      0.000001606  -0.000005155   0.597220997
In1      0.499787882   0.000422569   0.624208863
In1      0.000423101   0.499785521   0.624209014
In1      0.499790806   0.499786369   0.624208982
N1      -0.000005497   0.000019593   0.676189757
H1       0.000002368  -0.000008603   0.716343998
End final coordinates

     Writing output data file calc.save

     General routines

     Parallel routines

   This run was terminated on:  11: 0:38  18Apr2018

   JOB DONE.