     Program PWSCF v.5.1rc2 (svn rev. 11289) starts on 19Jan2018 at  7:13:33

     Current dimensions of program PWSCF are:
     Max number of different atomic species (ntypx) = 10
     Max number of k-points (npk) =  40000
     Max angular momentum in pseudopotentials (lmaxx) =  3
     Presently stress not available with electric field

     IMPORTANT: XC functional enforced from input :
     Exchange-correlation      = BEEF-VDW ( 1  4 27 13 2)
     Any further DFT definition will be discarded
     Please, verify this is what you really want

     Subspace diagonalization in iterative solution of the eigenvalue problem:
     a serial algorithm will be used

     bravais-lattice index     =            0
     lattice parameter (alat)  =       1.8897  a.u.
     unit-cell volume          =    4306.9643 (a.u.)^3
     number of atoms/cell      =           13
     number of atomic types    =            2
     number of electrons       =       184.00
     number of Kohn-Sham states=          102
     kinetic-energy cutoff     =      36.7493  Ry
     charge density cutoff     =     367.4932  Ry
     convergence threshold     =      1.0E-05
     mixing beta               =       0.3000
     number of iterations used =           10  plain     mixing
     Exchange-correlation      = BEEF-VDW ( 1  4 27 13 2)
     nstep                     =           50

     celldm(1)=   1.889726  celldm(2)=   0.000000  celldm(3)=   0.000000
     celldm(4)=   0.000000  celldm(5)=   0.000000  celldm(6)=   0.000000

     crystal axes: (cart. coord. in units of alat)
               a(1) = (   5.486772   0.000000   0.000000 )
               a(2) = (   2.743386   4.751684   0.000000 )
               a(3) = (   0.000000   0.000000  24.479931 )

     reciprocal axes: (cart. coord. in units 2 pi/alat)
               b(1) = (  0.182257 -0.105226  0.000000 )
               b(2) = (  0.000000  0.210452  0.000000 )
               b(3) = (  0.000000  0.000000  0.040850 )

     PseudoPot. # 1 for Re read from file:
     /afs/slac.stanford.edu/u/if/mamunm/psp/gbrv1.5pbe/Re.UPF
     MD5 check sum: 85f993410f3e006da9d71c142b4ad953
     Pseudo is Ultrasoft + core correction, Zval = 15.0
     Generated by new atomic code, or converted to UPF format
     Using radial grid of  981 points,  8 beta functions with:
                l(1) =   0
                l(2) =   0
                l(3) =   1
                l(4) =   1
                l(5) =   2
                l(6) =   2
                l(7) =   3
                l(8) =   3
     Q(r) pseudized with  8 coefficients,  rinner =    1.150   1.150   1.150
                                                       1.150   1.150   1.150
                                                       1.150

     PseudoPot. # 2 for C  read from file:
     /afs/slac.stanford.edu/u/if/mamunm/psp/gbrv1.5pbe/C.UPF
     MD5 check sum: d1aef80898a10debaa0f26306b886e00
     Pseudo is Ultrasoft + core correction, Zval =  4.0
     Generated by new atomic code, or converted to UPF format
     Using radial grid of  721 points,  4 beta functions with:
                l(1) =   0
                l(2) =   0
                l(3) =   1
                l(4) =   1
     Q(r) pseudized with  8 coefficients,  rinner =    1.100   1.100   1.100

     vdW kernel table read from file vdW_kernel_table
     MD5 check sum: 095c7af220d748ca6e76c0b4c6cfb241

     atomic species   valence    mass     pseudopotential
        Re1           15.00   186.20700     Re( 1.00)
        C1             4.00    12.01100     C ( 1.00)

     No symmetry found

   Cartesian axes

     site n.     atom                  positions (alat units)
         1           Re1 tau(   1) = (   1.3716930   0.7919474  10.0000000  )
         2           Re1 tau(   2) = (   4.1150791   0.7919474  10.0000000  )
         3           Re1 tau(   3) = (   2.7433861   3.1677894  10.0000000  )
         4           Re1 tau(   4) = (   5.4867722   3.1677894  10.0000000  )
         5           Re1 tau(   5) = (   5.4867722   1.5838947  12.2399654  )
         6           Re1 tau(   6) = (   2.7433861   1.5838947  12.2399654  )
         7           Re1 tau(   7) = (   6.8584652   3.9597368  12.2399654  )
         8           Re1 tau(   8) = (   4.1150791   3.9597368  12.2399654  )
         9           Re1 tau(   9) = (   0.0000000   0.0000000  14.4799307  )
        10           Re1 tau(  10) = (   2.7433861   0.0000000  14.4799307  )
        11           Re1 tau(  11) = (   1.3716930   2.3758421  14.4799307  )
        12           Re1 tau(  12) = (   4.1150791   2.3758421  14.4799307  )
        13           C1  tau(  13) = (   2.7433861   1.5838947  16.7499307  )

     number of k points=    20  Fermi-Dirac smearing, width (Ry)=  0.0110
                       cart. coord. in units 2pi/alat
        k(    1) = (   0.0000000   0.0000000   0.0000000), wk =   0.0555556
        k(    2) = (   0.0000000   0.0350753   0.0000000), wk =   0.1111111
        k(    3) = (   0.0000000   0.0701506   0.0000000), wk =   0.1111111
        k(    4) = (   0.0000000  -0.1052259   0.0000000), wk =   0.0555556
        k(    5) = (   0.0303761  -0.0175376   0.0000000), wk =   0.1111111
        k(    6) = (   0.0303761   0.0175376   0.0000000), wk =   0.1111111
        k(    7) = (   0.0303761   0.0526129   0.0000000), wk =   0.1111111
        k(    8) = (   0.0303761  -0.1227635   0.0000000), wk =   0.1111111
        k(    9) = (   0.0303761  -0.0876882   0.0000000), wk =   0.1111111
        k(   10) = (   0.0303761  -0.0526129   0.0000000), wk =   0.1111111
        k(   11) = (   0.0607522  -0.0350753   0.0000000), wk =   0.1111111
        k(   12) = (   0.0607522   0.0000000   0.0000000), wk =   0.1111111
        k(   13) = (   0.0607522   0.0350753   0.0000000), wk =   0.1111111
        k(   14) = (   0.0607522  -0.1403011   0.0000000), wk =   0.1111111
        k(   15) = (   0.0607522  -0.1052259   0.0000000), wk =   0.1111111
        k(   16) = (   0.0607522  -0.0701506   0.0000000), wk =   0.1111111
        k(   17) = (  -0.0911283   0.0526129   0.0000000), wk =   0.0555556
        k(   18) = (  -0.0911283   0.0876882   0.0000000), wk =   0.1111111
        k(   19) = (  -0.0911283   0.1227635   0.0000000), wk =   0.1111111
        k(   20) = (  -0.0911283  -0.0526129   0.0000000), wk =   0.0555556

     Largest allocated arrays     est. size (Mb)     dimensions
     Largest temporary arrays     est. size (Mb)     dimensions

     Initial potential from superposition of free atoms
     Check: negative starting charge=   -1.539573

     starting charge  177.99942, renormalised to  184.00000

     negative rho (up, down):  1.591E+00 0.000E+00

     *
     * You are using vdW-DF for exchange-correlation in this calculation.
     * Please cite the following three references that made this development
     * possible:
     *
     *   M. Dion, H. Rydberg, E. Schroder, D. C. Langreth, and
     *   B. I. Lundqvist, Phys. Rev. Lett. 92, 246401 (2004).
     *
     *   T. Thonhauser, V. R. Cooper, S. Li, A. Puzder, P. Hyldgaard, and
     *   D. C. Langreth, Phys. Rev. B 76, 125112 (2007).
     *
     *   G. Roman-Perez and J. M. Soler, Phys. Rev. Lett. 103, 096102 (2009).
     *
     *
     * If you are using vdW-DF2, please also cite:
     *
     *   K. Lee, E. D. Murray, L. Kong, B. I. Lundqvist, and
     *   D. C. Langreth, Phys. Rev. B 82, 081101(R) (2010).
     *
     *
     * If you are calculating the stress with vdW-DF, please also cite:
     *
     *   R. Sabatini, E. Kucukbenli, B. Kolb, T. Thonhauser, and
     *   S. de Gironcoli, J. Phys.: Condens. Matter 24, 424209 (2012).
     *

     Carrying out vdW-DF run using the following parameters:

     Nqs =      20    Nr_points =    1024   r_max =   100.000
     q_mesh =
               0.00001000     0.04494208     0.09755937     0.15916263
               0.23128650     0.31572767     0.41458969     0.53033537
               0.66584808     0.82450364     1.01025438     1.22772762
               1.48234092     1.78043706     2.12944203     2.53805004
               3.01644009     3.57652955     4.23227104     5.00000000

     Gradients computed in reciprocal space

     Adding external electric field

     Computed dipole along edir(3) :
        Dipole               -1.1489 Ry au,         -2.9201 Debye
        Dipole field         -0.0034 Ry au

        Potential amp.        0.3024 Ry
        Total length         45.1039 bohr

     Starting wfc are  160 randomized atomic wfcs

     Self-consistent Calculation

     iteration #  1     ecut=    36.75 Ry     beta=0.30
     Davidson diagonalization with overlap
     ethr =  1.00E-02,  avg # of iterations =  2.0

[...]

     total energy              =   -2299.55073946 Ry
     Harris-Foulkes estimate   =   -2317.55260053 Ry
     estimated scf accuracy    <      37.49590264 Ry

[...]

     End of self-consistent calculation

          k = 0.0000 0.0000 0.0000 ( 16091 PWs)   bands (ev):

   -77.9314 -77.8474 -77.8462 -77.8321 -77.8153 -77.7905 -77.7669 -77.7573
   -77.7571 -77.7247 -77.7242 -77.7172 -40.1919 -40.1736 -40.1730 -40.0691
   -39.9979 -39.9957 -39.9955 -39.8779 -39.8723 -39.8721 -39.6424 -39.5321
   -39.5095 -39.5091 -39.5024 -39.5021 -39.5019 -39.4300 -39.4205 -39.4200
   -39.2996 -39.2991 -39.2975 -39.2115 -39.2037 -39.2036 -39.1914 -39.1774
   -39.1773 -39.1397 -39.1353 -39.1352 -38.9890 -38.9890 -38.9382 -38.9382
    -6.6490  -5.8164  -4.4099  -3.9589  -3.6078  -3.6076  -3.5946  -3.2995
    -3.2994  -3.2791  -2.6146  -2.6146  -2.6124  -2.4269  -2.4268  -2.4173
    -0.8850  -0.8849  -0.8561   0.1469   0.1744   0.1744   0.3762   0.5120
     0.8480   0.8480   1.1976   1.1977   1.2986   1.2986   1.3445   1.3479
     1.3481   1.3683   1.6009   1.6009   1.9547   2.4393   2.6434   2.6435
     3.1368   3.1369   3.1665   3.3712   3.4807   3.4808   3.9294   3.9294
     3.9397   4.4533   4.4534   4.4919   4.4919   4.7998

[...]

          k =-0.0911 0.0526 0.0000 ( 16164 PWs)   bands (ev):

[...]

     the Fermi energy is     2.6911 ev

!    total energy              =   -2317.06869893 Ry
     Harris-Foulkes estimate   =   -2317.06867908 Ry
     estimated scf accuracy    <       0.00000512 Ry

     The total energy is the sum of the following terms:

     one-electron contribution =  -18621.27870467 Ry
     hartree contribution      =    9295.71309576 Ry
     xc contribution           =    -652.51094425 Ry
     ewald contribution        =    7661.07937523 Ry
     electric field correction =       0.00023915 Ry
     smearing contrib. (-TS)   =      -0.07176015 Ry

     convergence has been achieved in  19 iterations

 BEEF-vdW xc energy contributions
           1 :   -580.084406277395
           2 :    539.278654271158
           3 :   -466.046388977175
           4 :    374.296296630648
           5 :   -279.358114072751
           6 :    194.101888136901
           7 :   -126.329125445927
           8 :    78.0394242825336
           9 :   -46.5274418419369
          10 :    26.6302659778994
          11 :   -13.1395931899820
          12 :    2.49929350627485
          13 :    6.63642794037457
          14 :   -13.8835776236740
          15 :    18.1839150512519
          16 :   -18.8773355328794
[...]

[...]

     Total force =     0.109456     Total SCF correction =     0.013315
     SCF correction compared to forces is large: reduce conv_thr to get better values

[...]

     Program PWSCF v.5.1rc2 (svn rev. 11289) starts on 19Jan2018 at  9:10: 6

[...]

     Total force =     0.080388     Total SCF correction =     0.004735

[...]

   This run was terminated on:   9:38: 9  19Jan2018

[...]

   This run was terminated on:   9:52:12  19Jan2018

[...]

     Program PWSCF v.5.1rc2 (svn rev. 11289) starts on 19Jan2018 at  9:52:17

     Current dimensions of program PWSCF are:
     Max number of different atomic species (ntypx) = 10
     Max number of k-points (npk) =  40000
     Max angular momentum in pseudopotentials (lmaxx) =  3
     Presently stress not available with electric field

     IMPORTANT: XC functional enforced from input :
     Exchange-correlation      = BEEF-VDW ( 1  4 27 13 2)
     Any further DFT definition will be discarded
     Please, verify this is what you really want

     Subspace diagonalization in iterative solution of the eigenvalue problem:
     a serial algorithm will be used

     bravais-lattice index     =            0
     lattice parameter (alat)  =       1.8897  a.u.
     unit-cell volume          =    4306.9643 (a.u.)^3
     number of atoms/cell      =           13
     number of atomic types    =            2
     number of electrons       =       184.00
     number of Kohn-Sham states=          102
     kinetic-energy cutoff     =      36.7493  Ry
     charge density cutoff     =     367.4932  Ry
     convergence threshold     =      1.0E-05
     mixing beta               =       0.3000
     number of iterations used =           10  plain     mixing
     Exchange-correlation      = BEEF-VDW ( 1  4 27 13 2)
     nstep                     =           50

     celldm(1)=   1.889726  celldm(2)=   0.000000  celldm(3)=   0.000000
     celldm(4)=   0.000000  celldm(5)=   0.000000  celldm(6)=   0.000000

     crystal axes: (cart. coord. in units of alat)
               a(1) = (   5.486772   0.000000   0.000000 )
               a(2) = (   2.743386   4.751684   0.000000 )
               a(3) = (   0.000000   0.000000  24.479931 )

     reciprocal axes: (cart. coord. in units 2 pi/alat)
               b(1) = (  0.182257 -0.105226  0.000000 )
               b(2) = (  0.000000  0.210452  0.000000 )
               b(3) = (  0.000000  0.000000  0.040850 )

     PseudoPot. # 1 for Re read from file:
     /afs/slac.stanford.edu/u/if/mamunm/psp/gbrv1.5pbe/Re.UPF
     MD5 check sum: 85f993410f3e006da9d71c142b4ad953
     Pseudo is Ultrasoft + core correction, Zval = 15.0
     Generated by new atomic code, or converted to UPF format
     Using radial grid of  981 points,  8 beta functions with:
                l(1) =   0
                l(2) =   0
                l(3) =   1
                l(4) =   1
                l(5) =   2
                l(6) =   2
                l(7) =   3
                l(8) =   3
     Q(r) pseudized with  8 coefficients,  rinner =    1.150   1.150   1.150
                                                       1.150   1.150   1.150
                                                       1.150

     PseudoPot. # 2 for C  read from file:
     /afs/slac.stanford.edu/u/if/mamunm/psp/gbrv1.5pbe/C.UPF
     MD5 check sum: d1aef80898a10debaa0f26306b886e00
     Pseudo is Ultrasoft + core correction, Zval =  4.0
     Generated by new atomic code, or converted to UPF format
     Using radial grid of  721 points,  4 beta functions with:
                l(1) =   0
                l(2) =   0
                l(3) =   1
                l(4) =   1
     Q(r) pseudized with  8 coefficients,  rinner =    1.100   1.100   1.100

     vdW kernel table read from file vdW_kernel_table
     MD5 check sum: 095c7af220d748ca6e76c0b4c6cfb241

     atomic species   valence    mass     pseudopotential
        Re1           15.00   186.20700     Re( 1.00)
        C1             4.00    12.01100     C ( 1.00)

     No symmetry found

   Cartesian axes

     site n.     atom                  positions (alat units)
         1           Re1 tau(   1) = (   1.3716930   0.7919474  10.0000000  )
         2           Re1 tau(   2) = (   4.1150791   0.7919474  10.0000000  )
         3           Re1 tau(   3) = (   2.7433861   3.1677894  10.0000000  )
         4           Re1 tau(   4) = (   5.4867722   3.1677894  10.0000000  )
         5           Re1 tau(   5) = (   5.4867722   1.5838947  12.2399654  )
         6           Re1 tau(   6) = (   2.7433861   1.5838947  12.2399654  )
         7           Re1 tau(   7) = (   6.8584652   3.9597368  12.2399654  )
         8           Re1 tau(   8) = (   4.1150791   3.9597368  12.2399654  )
         9           Re1 tau(   9) = (   5.4863223   0.0001866  14.3739792  )
        10           Re1 tau(  10) = (   5.4874921   4.7229559  14.4860411  )
        11           Re1 tau(  11) = (   6.8333905   2.3907235  14.4859420  )
        12           Re1 tau(  12) = (   4.1395552   2.3895777  14.4863044  )
        13           C1  tau(  13) = (   2.7437295   1.5840676  15.6316491  )

     number of k points=    20  Fermi-Dirac smearing, width (Ry)=  0.0110
                       cart. coord. in units 2pi/alat
        k(    1) = (   0.0000000   0.0000000   0.0000000), wk =   0.0555556
        k(    2) = (   0.0000000   0.0350753   0.0000000), wk =   0.1111111
        k(    3) = (   0.0000000   0.0701506   0.0000000), wk =   0.1111111
        k(    4) = (   0.0000000  -0.1052259   0.0000000), wk =   0.0555556
        k(    5) = (   0.0303761  -0.0175376   0.0000000), wk =   0.1111111
        k(    6) = (   0.0303761   0.0175376   0.0000000), wk =   0.1111111
        k(    7) = (   0.0303761   0.0526129   0.0000000), wk =   0.1111111
        k(    8) = (   0.0303761  -0.1227635   0.0000000), wk =   0.1111111
        k(    9) = (   0.0303761  -0.0876882   0.0000000), wk =   0.1111111
        k(   10) = (   0.0303761  -0.0526129   0.0000000), wk =   0.1111111
        k(   11) = (   0.0607522  -0.0350753   0.0000000), wk =   0.1111111
        k(   12) = (   0.0607522   0.0000000   0.0000000), wk =   0.1111111
        k(   13) = (   0.0607522   0.0350753   0.0000000), wk =   0.1111111
        k(   14) = (   0.0607522  -0.1403011   0.0000000), wk =   0.1111111
        k(   15) = (   0.0607522  -0.1052259   0.0000000), wk =   0.1111111
        k(   16) = (   0.0607522  -0.0701506   0.0000000), wk =   0.1111111
        k(   17) = (  -0.0911283   0.0526129   0.0000000), wk =   0.0555556
        k(   18) = (  -0.0911283   0.0876882   0.0000000), wk =   0.1111111
        k(   19) = (  -0.0911283   0.1227635   0.0000000), wk =   0.1111111
        k(   20) = (  -0.0911283  -0.0526129   0.0000000), wk =   0.0555556

     Largest allocated arrays     est. size (Mb)     dimensions
     Largest temporary arrays     est. size (Mb)     dimensions

     Initial potential from superposition of free atoms
     Check: negative starting charge=   -1.539658

     starting charge  177.99942, renormalised to  184.00000

[...]

     *
     * You are using vdW-DF for exchange-correlation in this calculation.
     * Please cite the following three references that made this development
     * possible:
     *
     *   M. Dion, H. Rydberg, E. Schroder, D. C. Langreth, and
     *   B. I. Lundqvist, Phys. Rev. Lett. 92, 246401 (2004).
     *
     *   T. Thonhauser, V. R. Cooper, S. Li, A. Puzder, P. Hyldgaard, and
     *   D. C. Langreth, Phys. Rev. B 76, 125112 (2007).
     *
     *   G. Roman-Perez and J. M. Soler, Phys. Rev. Lett. 103, 096102 (2009).
     *
     *
     * If you are using vdW-DF2, please also cite:
     *
     *   K. Lee, E. D. Murray, L. Kong, B. I. Lundqvist, and
     *   D. C. Langreth, Phys. Rev. B 82, 081101(R) (2010).
     *
     *
     * If you are calculating the stress with vdW-DF, please also cite:
     *
     *   R. Sabatini, E. Kucukbenli, B. Kolb, T. Thonhauser, and
     *   S. de Gironcoli, J. Phys.: Condens. Matter 24, 424209 (2012).
     *

     Carrying out vdW-DF run using the following parameters:

     Nqs =      20    Nr_points =    1024   r_max =   100.000
     q_mesh =
               0.00001000     0.04494208     0.09755937     0.15916263
               0.23128650     0.31572767     0.41458969     0.53033537
               0.66584808     0.82450364     1.01025438     1.22772762
               1.48234092     1.78043706     2.12944203     2.53805004
               3.01644009     3.57652955     4.23227104     5.00000000

     Gradients computed in reciprocal space

[...]

     Starting wfc are  160 randomized atomic wfcs

     Self-consistent Calculation

[...]

     total energy              =   -2317.40922120 Ry
     Harris-Foulkes estimate   =   -2317.40923440 Ry
     estimated scf accuracy    <       0.00007451 Ry

     iteration # 18     ecut=    36.75 Ry     beta=0.30
     Davidson diagonalization with overlap
     ethr =  3.81E-08,  avg # of iterations =  2.5

[...]

     negative rho (up, down):  1.623E+00 0.000E+00

     Adding external electric field

     Computed dipole along edir(3) :
        Dipole               -0.0593 Ry au,         -0.1508 Debye
        Dipole field         -0.0002 Ry au

        Potential amp.        0.0156 Ry
        Total length         45.1039 bohr

     End of self-consistent calculation

[...]

          k = 0.0608-0.0702 0.0000 ( 16218 PWs)   bands (ev):

[...]

          k =-0.0911-0.0526 0.0000 ( 16164 PWs)   bands (ev):

   -77.6319 -77.6239 -77.5821 -77.5754 -77.5356 -77.5285 -77.5232 -77.5157
   -77.4959 -77.4923 -77.4895 -77.4840 -39.8002 -39.7471 -39.7154 -39.6961
   -39.6568 -39.6504 -39.5582 -39.5407 -39.4992 -39.4729 -39.4627 -39.4520
   -39.3241 -39.2713 -39.2225 -39.2205 -39.2120 -39.2000 -39.1941 -39.1855
   -39.1705 -39.1605 -39.1526 -39.1384 -39.1147 -39.1119 -39.0708 -39.0478
   -38.9875 -38.9772 -38.9416 -38.9217 -38.8858 -38.8524 -38.8085 -38.8016
    -8.1326  -4.3853  -4.1699  -2.9661  -2.6173  -2.3775  -2.1904  -2.1675
    -2.1493  -2.0720  -1.9659  -1.5383  -1.3515  -1.2461  -1.1490  -1.0493
    -0.9135  -0.8718  -0.6585  -0.4699  -0.3399  -0.1596  -0.1576   0.1712
     0.2134   0.4929   0.5923   0.7518   0.8971   0.8987   0.9787   1.0228
     1.0834   1.1708   1.2570   1.3936   1.4623   1.5135   1.7036   1.9415
     1.9974   2.3066   2.5626   2.7999   2.9485   2.9924   3.1608   3.2652
     3.4113   3.4827   3.7552   3.8083   3.9739   4.0737

     the Fermi energy is     2.9198 ev

!    total energy              =   -2317.40922418 Ry
     Harris-Foulkes estimate   =   -2317.40923027 Ry
     estimated scf accuracy    <       0.00000443 Ry

     The total energy is the sum of the following terms:

     one-electron contribution =  -18949.94354164 Ry
     hartree contribution      =    9461.30238473 Ry
     xc contribution           =    -653.31681235 Ry
     ewald contribution        =    7824.61233573 Ry
     electric field correction =       0.00001027 Ry
     smearing contrib. (-TS)   =      -0.06360093 Ry

     convergence has been achieved in  18 iterations

 BEEF-vdW xc energy contributions
           1 :   -580.883228836088
           2 :    540.287805045961
           3 :   -467.314569349282
           4 :    375.691274417615
           5 :   -280.650342119937
           6 :    195.068328274507
           7 :   -126.841385064580
           8 :    78.1096909642895
           9 :   -46.2955657847408
          10 :    26.2966483308034
          11 :   -12.8741885649143
          12 :    2.37343863607146
          13 :    6.66182085648200
          14 :   -13.9166385373462
          15 :    18.3348735701043
          16 :   -19.1954924242380
          17 :    16.7823420674525
          18 :   -12.4359984789165
          19 :    8.05292367478955
          20 :   -5.32403921989828
          21 :    5.08176592185805
          22 :   -7.04108679700391
          23 :    10.0215081883741
          24 :   -12.5235947111232
          25 :    13.3891305823195
          26 :   -12.2579860532862
          27 :    9.64019209054618
          28 :   -6.60492767348296
          29 :    4.25775962906528
          30 :   -3.25916255298648
          31 :   -48.3817582037007
          32 :   -35.9710127883980

     Forces acting on atoms (Ry/au):

     negative rho (up, down):  1.623E+00 0.000E+00
     atom    1 type  1   force =    -0.00500313   -0.00292404    0.02169185
     atom    2 type  1   force =     0.00494726   -0.00289017    0.02158750
     atom    3 type  1   force =     0.00000947    0.00577909    0.02172409
     atom    4 type  1   force =    -0.00002643    0.00005171    0.02686897
     atom    5 type  1   force =     0.00017709   -0.00374761   -0.03602299
     atom    6 type  1   force =    -0.00008434    0.00005976    0.01587480
     atom    7 type  1   force =     0.00333487    0.00176966   -0.03606954
     atom    8 type  1   force =    -0.00327965    0.00193382   -0.03601144
     atom    9 type  1   force =     0.00049588   -0.00012459    0.00008598
     atom   10 type  1   force =    -0.00077665   -0.00022032   -0.00012258
     atom   11 type  1   force =     0.00002324   -0.00041808    0.00001743
     atom   12 type  1   force =     0.00056868    0.00081551   -0.00036437
     atom   13 type  2   force =    -0.00038630   -0.00008474    0.00074030

     Total force =     0.080147     Total SCF correction =     0.013676
     SCF correction compared to forces is large: reduce conv_thr to get better values

     entering subroutine stress ...

     negative rho (up, down):  1.623E+00 0.000E+00
          total   stress  (Ry/bohr**3)                   (kbar)     P=  -10.53
  -0.00004773   0.00000009  -0.00000025         -7.02      0.01     -0.04
   0.00000009  -0.00004787  -0.00000005          0.01     -7.04     -0.01
  -0.00000025  -0.00000005  -0.00011907         -0.04     -0.01    -17.52

 !ASE

     Writing output data file calc.save

     General routines

     Parallel routines

   This run was terminated on:  10: 6:14  19Jan2018

   JOB DONE.
Job  /afs/slac/g/suncat/bin/suncat-tsmpirun -x LD_LIBRARY_PATH -wdir /scratch/qe891277_fn1WN pw.x -in pw.inp

TID   HOST_NAME   COMMAND_LINE            STATUS            TERMINATION_TIME
00000 suncat0217 pw.x -in pw.inp   Done                     01/19/2018 10:06:14
00001 suncat0217 pw.x -in pw.inp   Done                     01/19/2018 10:06:14
00002 suncat0217 pw.x -in pw.inp   Done                     01/19/2018 10:06:14
00003 suncat0217 pw.x -in pw.inp   Done                     01/19/2018 10:06:14
00004 suncat0217 pw.x -in pw.inp   Done                     01/19/2018 10:06:14
00005 suncat0217 pw.x -in pw.inp   Done                     01/19/2018 10:06:14
00006 suncat0217 pw.x -in pw.inp   Done                     01/19/2018 10:06:14
00007 suncat0217 pw.x -in pw.inp   Done                     01/19/2018 10:06:14
00008 suncat0216 pw.x -in pw.inp   Done                     01/19/2018 10:06:14
00009 suncat0216 pw.x -in pw.inp   Done                     01/19/2018 10:06:14
00010 suncat0216 pw.x -in pw.inp   Done                     01/19/2018 10:06:14
00011 suncat0216 pw.x -in pw.inp   Done                     01/19/2018 10:06:14
00012 suncat0216 pw.x -in pw.inp   Done                     01/19/2018 10:06:14
00013 suncat0216 pw.x -in pw.inp   Done                     01/19/2018 10:06:14
00014 suncat0216 pw.x -in pw.inp   Done                     01/19/2018 10:06:14
00015 suncat0216 pw.x -in pw.inp   Done                     01/19/2018 10:06:14
00016 suncat0215 pw.x -in pw.inp   Done                     01/19/2018 10:06:14
00017 suncat0215 pw.x -in pw.inp   Done                     01/19/2018 10:06:14
00018 suncat0215 pw.x -in pw.inp   Done                     01/19/2018 10:06:14
00019 suncat0215 pw.x -in pw.inp   Done                     01/19/2018 10:06:14
00020 suncat0215 pw.x -in pw.inp   Done                     01/19/2018 10:06:14
00021 suncat0215 pw.x -in pw.inp   Done                     01/19/2018 10:06:14
00022 suncat0215 pw.x -in pw.inp   Done                     01/19/2018 10:06:14
00023 suncat0215 pw.x -in pw.inp   Done                     01/19/2018 10:06:14
00024 suncat0213 pw.x -in pw.inp   Done                     01/19/2018 10:06:14
00025 suncat0213 pw.x -in pw.inp   Done                     01/19/2018 10:06:14
00026 suncat0213 pw.x -in pw.inp   Done                     01/19/2018 10:06:14
00027 suncat0213 pw.x -in pw.inp   Done                     01/19/2018 10:06:14
00028 suncat0213 pw.x -in pw.inp   Done                     01/19/2018 10:06:14
00029 suncat0213 pw.x -in pw.inp   Done                     01/19/2018 10:06:14
00030 suncat0213 pw.x -in pw.inp   Done                     01/19/2018 10:06:14
00031 suncat0213 pw.x -in pw.inp   Done                     01/19/2018 10:06:14