     Program PWSCF v.5.1rc2 (svn rev. 11289) starts on  2May2018 at 19:57:57

     Current dimensions of program PWSCF are:
     Max number of different atomic species (ntypx) = 10
     Max number of k-points (npk) =  40000
     Max angular momentum in pseudopotentials (lmaxx) =  3
     Presently stress not available with electric field

     IMPORTANT: XC functional enforced from input :
     Exchange-correlation      = BEEF-VDW ( 1  4 27 13 2)
     Any further DFT definition will be discarded
     Please, verify this is what you really want

     Subspace diagonalization in iterative solution of the eigenvalue problem:
     a serial algorithm will be used

     bravais-lattice index     =            0
     lattice parameter (alat)  =       1.8897  a.u.
     unit-cell volume          =    6082.7792 (a.u.)^3
     number of atoms/cell      =           13
     number of atomic types    =            2
     number of electrons       =       150.00
     number of Kohn-Sham states=           85
     kinetic-energy cutoff     =      36.7493  Ry
     charge density cutoff     =     367.4932  Ry
     convergence threshold     =      1.0E-05
     mixing beta               =       0.3000
     number of iterations used =           10  plain     mixing
     Exchange-correlation      = BEEF-VDW ( 1  4 27 13 2)
     nstep                     =           50

     celldm(1)=   1.889726  celldm(2)=   0.000000  celldm(3)=   0.000000
     celldm(4)=   0.000000  celldm(5)=   0.000000  celldm(6)=   0.000000

     crystal axes: (cart. coord. in units of alat)
               a(1) = (   6.421223   0.000000   0.000000 )
               a(2) = (   3.210611   5.560942   0.000000 )
               a(3) = (   0.000000   0.000000  25.242906 )

     reciprocal axes: (cart. coord. in units 2 pi/alat)
               b(1) = (  0.155734 -0.089913  0.000000 )
               b(2) = (  0.000000  0.179826  0.000000 )
               b(3) = (  0.000000  0.000000  0.039615 )

     PseudoPot. # 1 for Zr read from file:
     /u/if/mamunm/psp/gbrv1.5pbe/Zr.UPF
     MD5 check sum: 5db81b1e868ab7776c4564c113de050b
     Pseudo is Ultrasoft + core correction, Zval = 12.0
     Generated by new atomic code, or converted to UPF format
     Using radial grid of  887 points,  6 beta functions with:
                l(1) =   0
                l(2) =   0
                l(3) =   1
                l(4) =   1
                l(5) =   2
                l(6) =   2
     Q(r) pseudized with  6 coefficients,  rinner =    1.200   1.200   1.200
                                                       1.200   1.200

     PseudoPot. # 2 for O  read from file:
     /u/if/mamunm/psp/gbrv1.5pbe/O.UPF
     MD5 check sum: 734c27235a0248c51dbae37a1fbe46ec
     Pseudo is Ultrasoft + core correction, Zval =  6.0
     Generated by new atomic code, or converted to UPF format
     Using radial grid of  737 points,  5 beta functions with:
                l(1) =   0
                l(2) =   0
                l(3) =   1
                l(4) =   1
                l(5) =   2
     Q(r) pseudized with  8 coefficients,  rinner =    0.900   0.900   0.900
                                                       0.900   0.900

     vdW kernel table read from file vdW_kernel_table
     MD5 check sum: 095c7af220d748ca6e76c0b4c6cfb241

     atomic species   valence    mass     pseudopotential
        Zr1           12.00    91.22400     Zr( 1.00)
        O1             6.00    15.99900     O ( 1.00)

     No symmetry found

   Cartesian axes

     site n.     atom                  positions (alat units)
         1           Zr1 tau(   1) = (   1.6053057   0.9268237  10.0000000  )
         2           Zr1 tau(   2) = (   4.8159170   0.9268237  10.0000000  )
         3           Zr1 tau(   3) = (   3.2106113   3.7072946  10.0000000  )
         4           Zr1 tau(   4) = (   6.4212227   3.7072946  10.0000000  )
         5           Zr1 tau(   5) = (   6.4212227   1.8536473  12.6214532  )
         6           Zr1 tau(   6) = (   3.2106113   1.8536473  12.6214532  )
         7           Zr1 tau(   7) = (   8.0265283   4.6341183  12.6214532  )
         8           Zr1 tau(   8) = (   4.8159170   4.6341183  12.6214532  )
         9           Zr1 tau(   9) = (   0.0000000   0.0000000  15.2429064  )
        10           Zr1 tau(  10) = (   3.2106113   0.0000000  15.2429064  )
        11           Zr1 tau(  11) = (   1.6053057   2.7804710  15.2429064  )
        12           Zr1 tau(  12) = (   4.8159170   2.7804710  15.2429064  )
        13           O1  tau(  13) = (   0.0000000   0.0000000  17.2914064  )

     number of k points=    20  Fermi-Dirac smearing, width (Ry)=  0.0110
                       cart. coord. in units 2pi/alat
        k(    1) = (   0.0000000   0.0000000   0.0000000), wk =   0.0555556
        k(    2) = (   0.0000000   0.0299709   0.0000000), wk =   0.1111111
        k(    3) = (   0.0000000   0.0599419   0.0000000), wk =   0.1111111
        k(    4) = (   0.0000000  -0.0899128   0.0000000), wk =   0.0555556
        k(    5) = (   0.0259556  -0.0149855   0.0000000), wk =   0.1111111
        k(    6) = (   0.0259556   0.0149855   0.0000000), wk =   0.1111111
        k(    7) = (   0.0259556   0.0449564   0.0000000), wk =   0.1111111
        k(    8) = (   0.0259556  -0.1048983   0.0000000), wk =   0.1111111
        k(    9) = (   0.0259556  -0.0749274   0.0000000), wk =   0.1111111
        k(   10) = (   0.0259556  -0.0449564   0.0000000), wk =   0.1111111
        k(   11) = (   0.0519112  -0.0299709   0.0000000), wk =   0.1111111
        k(   12) = (   0.0519112   0.0000000   0.0000000), wk =   0.1111111
        k(   13) = (   0.0519112   0.0299709   0.0000000), wk =   0.1111111
        k(   14) = (   0.0519112  -0.1198838   0.0000000), wk =   0.1111111
        k(   15) = (   0.0519112  -0.0899128   0.0000000), wk =   0.1111111
        k(   16) = (   0.0519112  -0.0599419   0.0000000), wk =   0.1111111
        k(   17) = (  -0.0778668   0.0449564   0.0000000), wk =   0.0555556
        k(   18) = (  -0.0778668   0.0749274   0.0000000), wk =   0.1111111
        k(   19) = (  -0.0778668   0.1048983   0.0000000), wk =   0.1111111
        k(   20) = (  -0.0778668  -0.0449564   0.0000000), wk =   0.0555556

     Largest allocated arrays     est. size (Mb)     dimensions
     Largest temporary arrays     est. size (Mb)     dimensions

     Initial potential from superposition of free atoms
     Check: negative starting charge=   -0.729294

     starting charge  149.97421, renormalised to  150.00000

     negative rho (up, down):  7.294E-01 0.000E+00

     *
     * You are using vdW-DF for exchange-correlation in this calculation.
     * Please cite the following three references that made this development
     * possible:
     *
     *   M. Dion, H. Rydberg, E. Schroder, D. C. Langreth, and
     *   B. I. Lundqvist, Phys. Rev. Lett. 92, 246401 (2004).
     *
     *   T. Thonhauser, V. R. Cooper, S. Li, A. Puzder, P. Hyldgaard, and
     *   D. C. Langreth, Phys. Rev. B 76, 125112 (2007).
     *
     *   G. Roman-Perez and J. M. Soler, Phys. Rev. Lett. 103, 096102 (2009).
     *
     *
     * If you are using vdW-DF2, please also cite:
     *
     *   K. Lee, E. D. Murray, L. Kong, B. I. Lundqvist, and
     *   D. C. Langreth, Phys. Rev. B 82, 081101(R) (2010).
     *
     *
     * If you are calculating the stress with vdW-DF, please also cite:
     *
     *   R. Sabatini, E. Kucukbenli, B. Kolb, T. Thonhauser, and
     *   S. de Gironcoli, J. Phys.: Condens. Matter 24, 424209 (2012).
     *

     Carrying out vdW-DF run using the following parameters:

     Nqs =      20    Nr_points =    1024   r_max =   100.000
     q_mesh =
               0.00001000     0.04494208     0.09755937     0.15916263
               0.23128650     0.31572767     0.41458969     0.53033537
               0.66584808     0.82450364     1.01025438     1.22772762
               1.48234092     1.78043706     2.12944203     2.53805004
               3.01644009     3.57652955     4.23227104     5.00000000

     Gradients computed in reciprocal space

     Adding external electric field

     Computed dipole along edir(3) :
        Dipole               -0.0091 Ry au,         -0.0231 Debye
        Dipole field         -0.0000 Ry au

        Potential amp.        0.0017 Ry
        Total length         46.5096 bohr

     Starting wfc are  160 randomized atomic wfcs

     Self-consistent Calculation

     iteration #  1     ecut=    36.75 Ry     beta=0.30
     Davidson diagonalization with overlap
     ethr =  1.00E-02,  avg # of iterations =  2.0

[...]

     total energy              =   -1226.57588170 Ry
     Harris-Foulkes estimate   =   -1230.13675805 Ry
     estimated scf accuracy    <       7.57373733 Ry

[...]

     End of self-consistent calculation

          k = 0.0000 0.0000 0.0000 ( 22923 PWs)   bands (ev):

   -48.3649 -48.2953 -48.2952 -48.2574 -48.1748 -48.1625 -48.1619 -47.9605
   -47.8795 -47.8782 -47.8780 -47.8612 -26.6015 -26.5835 -26.5834 -26.5316
   -26.5203 -26.5201 -26.5187 -26.4407 -26.4406 -26.3856 -26.3106 -26.2453
   -26.2450 -26.1353 -26.1110 -26.0588 -26.0586 -25.9998 -25.9996 -25.9862
   -25.9857 -25.9855 -25.9238 -25.8255 -25.8255 -25.8211 -25.8210 -25.7826
   -25.7553 -25.7553 -25.7332 -25.6896 -25.6852 -25.6851 -25.5395 -25.5394
   -15.1042  -3.9411  -2.8157  -2.0249  -1.6473  -1.6473  -1.5897  -1.5400
    -1.4570  -1.4570  -1.1849  -1.1145  -1.1145  -1.0075  -1.0074  -0.9994
    -0.7096  -0.7096  -0.6368   0.0325   0.3445   0.3446   0.9536   1.1929
     1.3456   1.3456   1.3769   1.5680   1.7332   1.7333   1.9025   1.9025
     1.9264   2.1501   2.1501   2.2103   2.2139

[...]

          k =-0.0779 0.0450 0.0000 ( 22880 PWs)   bands (ev):

[...]

     the Fermi energy is     1.0254 ev

!    total energy              =   -1229.46914361 Ry
     Harris-Foulkes estimate   =   -1229.46916454 Ry
     estimated scf accuracy    <       0.00000152 Ry

     The total energy is the sum of the following terms:

     one-electron contribution =   -8423.83624147 Ry
     hartree contribution      =    4203.80090023 Ry
     xc contribution           =    -227.97390811 Ry
     ewald contribution        =    3218.65552463 Ry
     electric field correction =       0.00050178 Ry
     smearing contrib. (-TS)   =      -0.11592067 Ry

     convergence has been achieved in  18 iterations

 BEEF-vdW xc energy contributions
           1 :   -195.221544072230
           2 :    176.417230135949
           3 :   -144.856804944100
           4 :    109.526807848591
           5 :   -78.3930457631342
           6 :    55.6834341076903
           7 :   -41.3399170012934
           8 :    32.4110386475556
           9 :   -25.3240936495762
          10 :    17.7956796538383
          11 :   -9.57803101080665
          12 :    1.94455727598799
          13 :    3.53948058316726
          14 :   -6.13786581271350
          15 :    6.33954872345015
          16 :   -5.44678400556998
          17 :    4.74526370037464
          18 :   -4.81486480235694
          19 :    5.37341948387774
          20 :   -5.67115944750461
          21 :    5.11072981822494
          22 :   -3.67415645553515
          23 :    1.91213322518470
          24 :  -0.558365252652806
          25 :   6.289205341394677E-002
          26 :  -0.351127783346982
          27 :   0.932544028571698
          28 :   -1.25468171353606
          29 :    1.05290832105158
          30 :  -0.474873941104789
          31 :   -22.5894388897079
          32 :   -16.7640611052799

     Forces acting on atoms (Ry/au):

     negative rho (up, down):  7.488E-01 0.000E+00
     atom    1 type  1   force =     0.00071543    0.00039834    0.01535590
     atom    2 type  1   force =    -0.00071514    0.00040295    0.01534433
     atom    3 type  1   force =     0.00000325   -0.00080942    0.01539066
     atom    4 type  1   force =    -0.00000136    0.00000826    0.01498293
     atom    5 type  1   force =     0.00000649    0.01013917   -0.01057777
     atom    6 type  1   force =    -0.00000741    0.00002920    0.00462812
     atom    7 type  1   force =    -0.00875739   -0.00508924   -0.01058358
     atom    8 type  1   force =     0.00875746   -0.00507989   -0.01060023
     atom    9 type  1   force =    -0.00000356   -0.00001178    0.14401457
     atom   10 type  1   force =     0.00000194    0.00130731   -0.00872870
     atom   11 type  1   force =     0.00114282   -0.00064676   -0.00871129
     atom   12 type  1   force =    -0.00114204   -0.00064847   -0.00871585
     atom   13 type  2   force =    -0.00000048    0.00000034   -0.15179909

     Total force =     0.209801     Total SCF correction =     0.000928

     entering subroutine stress ...

     negative rho (up, down):  7.488E-01 0.000E+00
          total   stress  (Ry/bohr**3)                   (kbar)     P=  -14.57
  -0.00005973   0.00000000   0.00000000         -8.79      0.00      0.00
   0.00000000  -0.00005973   0.00000000          0.00     -8.79      0.00
   0.00000000   0.00000000  -0.00017759          0.00      0.00    -26.12

     BFGS Geometry Optimization

     number of scf cycles    =   1
     number of bfgs steps    =   0

     energy   new            =   -1229.4691436112 Ry

     new trust radius        =       0.1517990920 bohr
     new conv_thr            =       0.0000099958 Ry

ATOMIC_POSITIONS (crystal)
Zr1      0.166666667   0.166666667   0.396150897    0   0   0
Zr1      0.666666667   0.166666667   0.396150897    0   0   0
Zr1      0.166666667   0.666666667   0.396150897    0   0   0
Zr1      0.666666667   0.666666667   0.396150897    0   0   0
Zr1      0.833333333   0.333333333   0.500000000    0   0   0
Zr1      0.333333333   0.333333333   0.500000000    0   0   0
Zr1      0.833333333   0.833333333   0.500000000    0   0   0
Zr1      0.333333333   0.833333333   0.500000000    0   0   0
Zr1      0.000000267  -0.000001121   0.606868138
Zr1      0.499937959   0.000124403   0.603666120
Zr1      0.000124953   0.499938454   0.603666484
Zr1      0.499936738   0.499938292   0.603666389
O1      -0.000000056   0.000000033   0.681818389

     Writing output data file calc.save
     Check: negative starting charge=   -0.729294
     NEW-OLD atomic charge density approx. for the potential
     Check: negative starting charge=   -0.729856

[...]

     iteration #  1     ecut=    36.75 Ry     beta=0.30
     Davidson diagonalization with overlap
     c_bands:  2 eigenvalues not converged
     c_bands:  2 eigenvalues not converged
     ethr =  1.00E-06,  avg # of iterations = 14.9

[...]

     energy   old            =   -1229.4691436112 Ry
     energy   new            =   -1229.5030480075 Ry

     CASE: energy  _new < energy  _old

[...]

     iteration #  1     ecut=    36.75 Ry     beta=0.30
     Davidson diagonalization with overlap
     c_bands:  2 eigenvalues not converged
     c_bands:  2 eigenvalues not converged
     ethr =  1.00E-06,  avg # of iterations = 15.6

[...]

     WARNING: bfgs curvature condition failed, Theta= 0.958
     new trust radius        =       0.0205745079 bohr
     new conv_thr            =       0.0000001000 Ry

[...]

     Total force =     0.004458     Total SCF correction =     0.000202

[...]

     Threshold (ethr) on eigenvalues was too large:
     Diagonalizing with lowered threshold

     Davidson diagonalization with overlap
     ethr =  2.03E-08,  avg # of iterations =  5.1

[...]

     Total force =     0.002589     Total SCF correction =     0.000394
     SCF correction compared to forces is large: reduce conv_thr to get better values

[...]

     number of scf cycles    =  11
     number of bfgs steps    =  10

     energy   old            =   -1229.5135822329 Ry
     energy   new            =   -1229.5135927801 Ry

     CASE: energy  _new < energy  _old

     new trust radius        =       0.0033958213 bohr
     new conv_thr            =       0.0000001000 Ry

ATOMIC_POSITIONS (crystal)
Zr1      0.166666667   0.166666667   0.396150897    0   0   0
Zr1      0.666666667   0.166666667   0.396150897    0   0   0
Zr1      0.166666667   0.666666667   0.396150897    0   0   0
Zr1      0.666666667   0.666666667   0.396150897    0   0   0
Zr1      0.833333333   0.333333333   0.500000000    0   0   0
Zr1      0.333333333   0.333333333   0.500000000    0   0   0
Zr1      0.833333333   0.833333333   0.500000000    0   0   0
Zr1      0.333333333   0.833333333   0.500000000    0   0   0
Zr1     -0.000001777   0.000002176   0.607111856
Zr1      0.497151488   0.005698846   0.598717499
Zr1      0.005697090   0.497149771   0.598714758
Zr1      0.497153228   0.497148745   0.598715520
O1       0.000001178  -0.000001291   0.678849701

     Writing output data file calc.save
     Check: negative starting charge=   -0.728643
     NEW-OLD atomic charge density approx. for the potential
     Check: negative starting charge=   -0.728884

[...]

     Self-consistent Calculation

[...]

     Threshold (ethr) on eigenvalues was too large:
     Diagonalizing with lowered threshold

     Davidson diagonalization with overlap
     ethr =  6.94E-09,  avg # of iterations =  5.7

[...]

     total energy              =   -1229.51359931 Ry
     Harris-Foulkes estimate   =   -1229.51359933 Ry
     estimated scf accuracy    <       0.00000023 Ry

     iteration #  7     ecut=    36.75 Ry     beta=0.30
     Davidson diagonalization with overlap
     ethr =  1.50E-10,  avg # of iterations =  3.2

[...]

     negative rho (up, down):  7.477E-01 0.000E+00

     Adding external electric field

     Computed dipole along edir(3) :
        Dipole               -0.3994 Ry au,         -1.0152 Debye
        Dipole field         -0.0008 Ry au

        Potential amp.        0.0768 Ry
        Total length         46.5096 bohr

     End of self-consistent calculation

[...]

          k = 0.0519-0.0599 0.0000 ( 22856 PWs)   bands (ev):

[...]

          k =-0.0779-0.0450 0.0000 ( 22880 PWs)   bands (ev):

   -48.1431 -48.1345 -48.1250 -48.1164 -48.0935 -48.0867 -48.0800 -47.8083
   -47.7912 -47.7665 -47.6793 -47.5634 -26.3626 -26.3408 -26.3294 -26.3200
   -26.2985 -26.2647 -26.2295 -26.2158 -26.2098 -26.1787 -26.1600 -26.1378
   -26.1163 -26.0965 -26.0953 -26.0694 -26.0457 -26.0414 -26.0401 -25.8884
   -25.8321 -25.8280 -25.8197 -25.8138 -25.7665 -25.7346 -25.7225 -25.6898
   -25.6580 -25.6522 -25.6277 -25.5771 -25.5582 -25.5519 -25.4854 -25.4491
   -15.2778  -2.4809  -2.4293  -1.9842  -1.9762  -1.8268  -1.4489  -1.4142
    -0.7826  -0.7352  -0.7015  -0.6704  -0.6574  -0.5586   0.0299   0.0528
     0.0801   0.1531   0.1555   0.2543   0.5114   0.5621   0.6170   0.6341
     0.6801   0.7424   0.9281   0.9787   1.0705   1.0960   1.1898   1.2826
     1.3613   1.4049   1.4092   1.5062   1.7987

     the Fermi energy is     1.1026 ev

!    total energy              =   -1229.51359925 Ry
     Harris-Foulkes estimate   =   -1229.51360076 Ry
     estimated scf accuracy    <       0.00000010 Ry

     The total energy is the sum of the following terms:

     one-electron contribution =   -8544.38634915 Ry
     hartree contribution      =    4264.68758267 Ry
     xc contribution           =    -228.28161898 Ry
     ewald contribution        =    3278.58011117 Ry
     electric field correction =       0.00032957 Ry
     smearing contrib. (-TS)   =      -0.11365453 Ry

     convergence has been achieved in   7 iterations

 BEEF-vdW xc energy contributions
           1 :   -195.529578860363
           2 :    176.798701513653
           3 :   -145.312923535415
           4 :    109.974748204857
           5 :   -78.7213542193454
           6 :    55.8232068345892
           7 :   -41.2976329242053
           8 :    32.2526759086431
           9 :   -25.1343488453909
          10 :    17.6378834203800
          11 :   -9.47018676301502
          12 :    1.86002919481112
          13 :    3.64517313334301
          14 :   -6.28793854375147
          15 :    6.51388634482808
          16 :   -5.59646862142517
          17 :    4.83083472650395
          18 :   -4.83786081131018
          19 :    5.37977239256662
          20 :   -5.72543736229301
          21 :    5.25759679800365
          22 :   -3.90987251141217
          23 :    2.18353826086300
          24 :  -0.792178937003541
          25 :   0.208422908250043
          26 :  -0.407704042564887
          27 :   0.944826393662879
          28 :   -1.28227514805710
          29 :    1.13390244595053
          30 :  -0.605338043486881
          31 :   -22.6095299811950
          32 :   -16.7975077329983

     Forces acting on atoms (Ry/au):

     negative rho (up, down):  7.477E-01 0.000E+00
     atom    1 type  1   force =     0.00045679    0.00023752    0.01318476
     atom    2 type  1   force =    -0.00045731    0.00024448    0.01317802
     atom    3 type  1   force =     0.00000591   -0.00050526    0.01320213
     atom    4 type  1   force =    -0.00000621    0.00002278    0.01381051
     atom    5 type  1   force =     0.00000007    0.00814656   -0.01306242
     atom    6 type  1   force =     0.00000062    0.00000482   -0.01280430
     atom    7 type  1   force =    -0.00705147   -0.00407709   -0.01306189
     atom    8 type  1   force =     0.00705128   -0.00407700   -0.01306080
     atom    9 type  1   force =     0.00000551   -0.00001830   -0.00042391
     atom   10 type  1   force =    -0.00000639    0.00024676    0.00014032
     atom   11 type  1   force =     0.00023463   -0.00011633    0.00016918
     atom   12 type  1   force =    -0.00023359   -0.00010911    0.00016062
     atom   13 type  2   force =     0.00000014    0.00000016   -0.00143222

     Total force =     0.001582     Total SCF correction =     0.000774
     SCF correction compared to forces is large: reduce conv_thr to get better values

     entering subroutine stress ...

     negative rho (up, down):  7.477E-01 0.000E+00
          total   stress  (Ry/bohr**3)                   (kbar)     P=   -5.43
  -0.00003228  -0.00000000   0.00000000         -4.75     -0.00      0.00
  -0.00000000  -0.00003228   0.00000000         -0.00     -4.75      0.00
   0.00000000   0.00000000  -0.00004623          0.00      0.00     -6.80

     bfgs converged in  12 scf cycles and  11 bfgs steps
     (criteria: energy <  1.0E+00, force <  1.9E-03)

     End of BFGS Geometry Optimization

     Final energy   =   -1229.5135992455 Ry
Begin final coordinates

ATOMIC_POSITIONS (crystal)
Zr1      0.166666667   0.166666667   0.396150897    0   0   0
Zr1      0.666666667   0.166666667   0.396150897    0   0   0
Zr1      0.166666667   0.666666667   0.396150897    0   0   0
Zr1      0.666666667   0.666666667   0.396150897    0   0   0
Zr1      0.833333333   0.333333333   0.500000000    0   0   0
Zr1      0.333333333   0.333333333   0.500000000    0   0   0
Zr1      0.833333333   0.833333333   0.500000000    0   0   0
Zr1      0.333333333   0.833333333   0.500000000    0   0   0
Zr1     -0.000001777   0.000002176   0.607111856
Zr1      0.497151488   0.005698846   0.598717499
Zr1      0.005697090   0.497149771   0.598714758
Zr1      0.497153228   0.497148745   0.598715520
O1       0.000001178  -0.000001291   0.678849701
End final coordinates

     Writing output data file calc.save

     General routines

     Parallel routines

   This run was terminated on:  21:28:52   2May2018

   JOB DONE.
Job  /afs/slac/g/suncat/bin/suncat-tsmpirun -x LD_LIBRARY_PATH -wdir /scratch/qe901735_ZojSK pw.x -npool 4 -in pw.inp

TID   HOST_NAME   COMMAND_LINE            STATUS            TERMINATION_TIME
00000 suncat0077 pw.x -npool 4 -i  Done                     05/02/2018 21:28:52
00001 suncat0077 pw.x -npool 4 -i  Done                     05/02/2018 21:28:52
00002 suncat0077 pw.x -npool 4 -i  Done                     05/02/2018 21:28:52
00003 suncat0077 pw.x -npool 4 -i  Done                     05/02/2018 21:28:52
00004 suncat0077 pw.x -npool 4 -i  Done                     05/02/2018 21:28:52
00005 suncat0077 pw.x -npool 4 -i  Done                     05/02/2018 21:28:52
00006 suncat0077 pw.x -npool 4 -i  Done                     05/02/2018 21:28:52
00007 suncat0077 pw.x -npool 4 -i  Done                     05/02/2018 21:28:52
00008 suncat0074 pw.x -npool 4 -i  Done                     05/02/2018 21:28:52
00009 suncat0074 pw.x -npool 4 -i  Done                     05/02/2018 21:28:52
00010 suncat0074 pw.x -npool 4 -i  Done                     05/02/2018 21:28:52
00011 suncat0074 pw.x -npool 4 -i  Done                     05/02/2018 21:28:52
00012 suncat0074 pw.x -npool 4 -i  Done                     05/02/2018 21:28:52
00013 suncat0074 pw.x -npool 4 -i  Done                     05/02/2018 21:28:52
00014 suncat0074 pw.x -npool 4 -i  Done                     05/02/2018 21:28:52
00015 suncat0074 pw.x -npool 4 -i  Done                     05/02/2018 21:28:52
00016 suncat0064 pw.x -npool 4 -i  Done                     05/02/2018 21:28:52
00017 suncat0064 pw.x -npool 4 -i  Done                     05/02/2018 21:28:52
00018 suncat0064 pw.x -npool 4 -i  Done                     05/02/2018 21:28:52
00019 suncat0064 pw.x -npool 4 -i  Done                     05/02/2018 21:28:52
00020 suncat0064 pw.x -npool 4 -i  Done                     05/02/2018 21:28:52
00021 suncat0064 pw.x -npool 4 -i  Done                     05/02/2018 21:28:52
00022 suncat0064 pw.x -npool 4 -i  Done                     05/02/2018 21:28:52
00023 suncat0064 pw.x -npool 4 -i  Done                     05/02/2018 21:28:52
00024 suncat0252 pw.x -npool 4 -i  Done                     05/02/2018 21:28:52
00025 suncat0252 pw.x -npool 4 -i  Done                     05/02/2018 21:28:52
00026 suncat0252 pw.x -npool 4 -i  Done                     05/02/2018 21:28:52
00027 suncat0252 pw.x -npool 4 -i  Done                     05/02/2018 21:28:52
00028 suncat0252 pw.x -npool 4 -i  Done                     05/02/2018 21:28:52
00029 suncat0252 pw.x -npool 4 -i  Done                     05/02/2018 21:28:52
00030 suncat0252 pw.x -npool 4 -i  Done                     05/02/2018 21:28:52
00031 suncat0252 pw.x -npool 4 -i  Done                     05/02/2018 21:28:52