     Program PWSCF v.5.1rc2 (svn rev. ) starts on 22Apr2018 at 22:32:28

     Current dimensions of program PWSCF are:
     Max number of different atomic species (ntypx) = 10
     Max number of k-points (npk) =  40000
     Max angular momentum in pseudopotentials (lmaxx) =  3
     Presently stress not available with electric field

     IMPORTANT: XC functional enforced from input :
     Exchange-correlation      = BEEF-VDW ( 1  4 27 13 2)
     Any further DFT definition will be discarded
     Please, verify this is what you really want

     Subspace diagonalization in iterative solution of the eigenvalue problem:
     a serial algorithm will be used

     bravais-lattice index     =            0
     lattice parameter (alat)  =       1.8897  a.u.
     unit-cell volume          =    6116.8020 (a.u.)^3
     number of atoms/cell      =           14
     number of atomic types    =            3
     number of electrons       =       139.00
     number of Kohn-Sham states=           79
     kinetic-energy cutoff     =      36.7493  Ry
     charge density cutoff     =     367.4932  Ry
     convergence threshold     =      1.0E-05
     mixing beta               =       0.3000
     number of iterations used =           10  plain     mixing
     Exchange-correlation      = BEEF-VDW ( 1  4 27 13 2)
     nstep                     =           50

     celldm(1)=   1.889726  celldm(2)=   0.000000  celldm(3)=   0.000000
     celldm(4)=   0.000000  celldm(5)=   0.000000  celldm(6)=   0.000000

     crystal axes: (cart. coord. in units of alat)
               a(1) = (   6.437465   0.000000   0.000000 )
               a(2) = (   3.218732   5.575008   0.000000 )
               a(3) = (   0.000000   0.000000  25.256168 )

     reciprocal axes: (cart. coord. in units 2 pi/alat)
               b(1) = (  0.155341 -0.089686  0.000000 )
               b(2) = (  0.000000  0.179372  0.000000 )
               b(3) = (  0.000000  0.000000  0.039594 )

     PseudoPot. # 1 for Sc read from file:
     /home/mamunm/src/pseudo/gbrv1.5pbe/Sc.UPF
     MD5 check sum: db30a2753ba66ef00f23801d899b7e7f
     Pseudo is Ultrasoft + core correction, Zval = 11.0
     Generated by new atomic code, or converted to UPF format
     Using radial grid of  849 points,  6 beta functions with:
                l(1) =   0
                l(2) =   0
                l(3) =   1
                l(4) =   1
                l(5) =   2
                l(6) =   2
     Q(r) pseudized with  6 coefficients,  rinner =    1.200   1.200   1.200
                                                       1.200   1.200

     PseudoPot. # 2 for S  read from file:
     /home/mamunm/src/pseudo/gbrv1.5pbe/S.UPF
     MD5 check sum: 88d86576ff6df21479756cfb9bdac1df
     Pseudo is Ultrasoft + core correction, Zval =  6.0
     Generated by new atomic code, or converted to UPF format
     Using radial grid of  907 points,  6 beta functions with:
                l(1) =   0
                l(2) =   0
                l(3) =   1
                l(4) =   1
                l(5) =   2
                l(6) =   2
     Q(r) pseudized with  8 coefficients,  rinner =    1.300   1.300   1.300
                                                       1.300   1.300

     PseudoPot. # 3 for H  read from file:
     /home/mamunm/src/pseudo/gbrv1.5pbe/H.UPF
     MD5 check sum: 761ae9a214b05c3daf00ab9f6b793d6f
     Pseudo is Ultrasoft, Zval =  1.0
     Generated by new atomic code, or converted to UPF format
     Using radial grid of  615 points,  2 beta functions with:
                l(1) =   0
                l(2) =   0
     Q(r) pseudized with  8 coefficients,  rinner =    0.700

     vdW kernel table read from file vdW_kernel_table
     MD5 check sum: 095c7af220d748ca6e76c0b4c6cfb241

     atomic species   valence    mass     pseudopotential
        Sc1           11.00    44.95591     Sc( 1.00)
        S1             6.00    32.06000     S ( 1.00)
        H1             1.00     1.00800     H ( 1.00)

     No symmetry found

   Cartesian axes

     site n.     atom                  positions (alat units)
         1           Sc1 tau(   1) = (   1.6093662   0.9291680  10.0000000  )
         2           Sc1 tau(   2) = (   4.8280986   0.9291680  10.0000000  )
         3           Sc1 tau(   3) = (   3.2187324   3.7166720  10.0000000  )
         4           Sc1 tau(   4) = (   6.4374648   3.7166720  10.0000000  )
         5           Sc1 tau(   5) = (   6.4374648   1.8583360  12.6280840  )
         6           Sc1 tau(   6) = (   3.2187324   1.8583360  12.6280840  )
         7           Sc1 tau(   7) = (   8.0468310   4.6458400  12.6280840  )
         8           Sc1 tau(   8) = (   4.8280986   4.6458400  12.6280840  )
         9           Sc1 tau(   9) = (   0.0000000   0.0000000  15.2561680  )
        10           Sc1 tau(  10) = (   3.2187324   0.0000000  15.2561680  )
        11           Sc1 tau(  11) = (   1.6093662   2.7875040  15.2561680  )
        12           Sc1 tau(  12) = (   4.8280986   2.7875040  15.2561680  )
        13           S1  tau(  13) = (   1.6093662   0.9291680  17.0436680  )
        14           H1  tau(  14) = (   1.6093662   0.9291680  18.2936680  )

     number of k points=    20  Fermi-Dirac smearing, width (Ry)=  0.0110
                       cart. coord. in units 2pi/alat
        k(    1) = (   0.0000000   0.0000000   0.0000000), wk =   0.0555556
        k(    2) = (   0.0000000   0.0298953   0.0000000), wk =   0.1111111
        k(    3) = (   0.0000000   0.0597906   0.0000000), wk =   0.1111111
        k(    4) = (   0.0000000  -0.0896860   0.0000000), wk =   0.0555556
        k(    5) = (   0.0258901  -0.0149477   0.0000000), wk =   0.1111111
        k(    6) = (   0.0258901   0.0149477   0.0000000), wk =   0.1111111
        k(    7) = (   0.0258901   0.0448430   0.0000000), wk =   0.1111111
        k(    8) = (   0.0258901  -0.1046336   0.0000000), wk =   0.1111111
        k(    9) = (   0.0258901  -0.0747383   0.0000000), wk =   0.1111111
        k(   10) = (   0.0258901  -0.0448430   0.0000000), wk =   0.1111111
        k(   11) = (   0.0517802  -0.0298953   0.0000000), wk =   0.1111111
        k(   12) = (   0.0517802   0.0000000   0.0000000), wk =   0.1111111
        k(   13) = (   0.0517802   0.0298953   0.0000000), wk =   0.1111111
        k(   14) = (   0.0517802  -0.1195813   0.0000000), wk =   0.1111111
        k(   15) = (   0.0517802  -0.0896860   0.0000000), wk =   0.1111111
        k(   16) = (   0.0517802  -0.0597906   0.0000000), wk =   0.1111111
        k(   17) = (  -0.0776703   0.0448430   0.0000000), wk =   0.0555556
        k(   18) = (  -0.0776703   0.0747383   0.0000000), wk =   0.1111111
        k(   19) = (  -0.0776703   0.1046336   0.0000000), wk =   0.1111111
        k(   20) = (  -0.0776703  -0.0448430   0.0000000), wk =   0.0555556

     Largest allocated arrays     est. size (Mb)     dimensions
     Largest temporary arrays     est. size (Mb)     dimensions

     Initial potential from superposition of free atoms
     Check: negative starting charge=   -0.000234

     starting charge  138.97113, renormalised to  139.00000

     negative rho (up, down):  2.344E-04 0.000E+00

     *
     * You are using vdW-DF for exchange-correlation in this calculation.
     * Please cite the following three references that made this development
     * possible:
     *
     *   M. Dion, H. Rydberg, E. Schroder, D. C. Langreth, and
     *   B. I. Lundqvist, Phys. Rev. Lett. 92, 246401 (2004).
     *
     *   T. Thonhauser, V. R. Cooper, S. Li, A. Puzder, P. Hyldgaard, and
     *   D. C. Langreth, Phys. Rev. B 76, 125112 (2007).
     *
     *   G. Roman-Perez and J. M. Soler, Phys. Rev. Lett. 103, 096102 (2009).
     *
     *
     * If you are using vdW-DF2, please also cite:
     *
     *   K. Lee, E. D. Murray, L. Kong, B. I. Lundqvist, and
     *   D. C. Langreth, Phys. Rev. B 82, 081101(R) (2010).
     *
     *
     * If you are calculating the stress with vdW-DF, please also cite:
     *
     *   R. Sabatini, E. Kucukbenli, B. Kolb, T. Thonhauser, and
     *   S. de Gironcoli, J. Phys.: Condens. Matter 24, 424209 (2012).
     *

     Carrying out vdW-DF run using the following parameters:

     Nqs =      20    Nr_points =    1024   r_max =   100.000
     q_mesh =
               0.00001000     0.04494208     0.09755937     0.15916263
               0.23128650     0.31572767     0.41458969     0.53033537
               0.66584808     0.82450364     1.01025438     1.22772762
               1.48234092     1.78043706     2.12944203     2.53805004
               3.01644009     3.57652955     4.23227104     5.00000000

     Gradients computed in reciprocal space

     Adding external electric field

     Computed dipole along edir(3) :
        Dipole               -0.0122 Ry au,         -0.0311 Debye
        Dipole field         -0.0000 Ry au

        Potential amp.        0.0023 Ry
        Total length         46.5341 bohr

     Starting wfc are  161 randomized atomic wfcs

     Self-consistent Calculation

     iteration #  1     ecut=    36.75 Ry     beta=0.30
     Davidson diagonalization with overlap
     ethr =  1.00E-02,  avg # of iterations =  2.0

[...]

     total energy              =   -1160.83977801 Ry
     Harris-Foulkes estimate   =   -1163.92099207 Ry
     estimated scf accuracy    <       6.48066524 Ry

[...]

     End of self-consistent calculation

          k = 0.0000 0.0000 0.0000 ( 23031 PWs)   bands (ev):

   -48.9998 -48.9964 -48.9554 -48.9553 -48.9501 -48.8569 -48.8242 -48.8242
   -48.5482 -48.5085 -48.5082 -48.4834 -27.7229 -27.7144 -27.7110 -27.7110
   -27.6783 -27.6622 -27.6621 -27.6246 -27.6245 -27.6179 -27.6092 -27.5395
   -27.4948 -27.4948 -27.4527 -27.4522 -27.4522 -27.3881 -27.3880 -27.3736
   -27.3736 -27.3504 -27.2772 -27.2722 -27.2721 -27.2596 -27.2595 -27.1044
   -27.0858 -27.0855 -27.0614 -27.0356 -27.0287 -27.0285 -26.9526 -26.9526
   -14.2205  -7.0161  -3.7136  -3.3255  -3.3254  -2.5338  -1.3017  -0.5310
    -0.5310  -0.5011  -0.4344  -0.3715  -0.3715  -0.1567  -0.0198  -0.0198
     0.3877   0.3877   0.3914   0.6918   0.6919   0.7206   1.0357   1.1167
     1.4368   1.5539   1.5540   1.5728   1.5923   1.5923   1.9832

[...]

          k =-0.0777 0.0448 0.0000 ( 23032 PWs)   bands (ev):

[...]

     the Fermi energy is     0.9519 ev

!    total energy              =   -1163.39209332 Ry
     Harris-Foulkes estimate   =   -1163.39209626 Ry
     estimated scf accuracy    <       0.00000583 Ry

     The total energy is the sum of the following terms:

     one-electron contribution =   -7386.08640087 Ry
     hartree contribution      =    3679.09529045 Ry
     xc contribution           =    -176.13792543 Ry
     ewald contribution        =    2719.87463696 Ry
     electric field correction =       0.00011901 Ry
     smearing contrib. (-TS)   =      -0.13781344 Ry

     convergence has been achieved in  21 iterations

 BEEF-vdW xc energy contributions
           1 :   -149.241079429362
           2 :    131.258122029703
           3 :   -103.137699988651
           4 :    75.6076330781460
           5 :   -56.2945556447715
           6 :    46.6916150264445
           7 :   -43.3442728690100
           8 :    41.5479485409528
           9 :   -38.5865736491378
          10 :    34.5694008017487
          11 :   -31.0517833373776
          12 :    29.0864343087076
          13 :   -28.3148856149672
          14 :    27.5280455581662
          15 :   -25.8917828128029
          16 :    23.6528769272834
          17 :   -21.7794153459988
          18 :    20.9855091372476
          19 :   -21.0780633972754
          20 :    21.1759640014563
          21 :   -20.5232396040357
          22 :    19.1205894499192
          23 :   -17.6414492286733
          24 :    16.7791793006422
          25 :   -16.6510886830974
          26 :    16.7657822405085
          27 :   -16.5185306865168
          28 :    15.7254912002988
          29 :   -14.7281579929079
          30 :    14.0247957391897
          31 :   -17.6585098422653
          32 :   -12.6250181265515

     Forces acting on atoms (Ry/au):

     negative rho (up, down):  9.641E-05 0.000E+00
     atom    1 type  1   force =    -0.00003253    0.00001269    0.00122852
     atom    2 type  1   force =     0.00003429   -0.00050118    0.00127435
     atom    3 type  1   force =    -0.00044701    0.00026560    0.00124466
     atom    4 type  1   force =     0.00044429    0.00022463    0.00129414
     atom    5 type  1   force =    -0.00126680    0.00072961    0.00372100
     atom    6 type  1   force =     0.00126495    0.00068220    0.00374975
     atom    7 type  1   force =    -0.00004328    0.00002184   -0.00607810
     atom    8 type  1   force =     0.00004505   -0.00143570    0.00375711
     atom    9 type  1   force =    -0.00860144   -0.00494068   -0.00549936
     atom   10 type  1   force =     0.00859641   -0.00496218   -0.00547019
     atom   11 type  1   force =    -0.00002135    0.00991178   -0.00548070
     atom   12 type  1   force =     0.00002450   -0.00001042   -0.00976635
     atom   13 type  2   force =     0.00000384    0.00000251   -0.11416905
     atom   14 type  3   force =    -0.00000093   -0.00000069    0.13019421

     Total force =     0.174545     Total SCF correction =     0.002735

     entering subroutine stress ...

     negative rho (up, down):  9.641E-05 0.000E+00
          total   stress  (Ry/bohr**3)                   (kbar)     P=    6.33
   0.00004231  -0.00000001  -0.00000000          6.22     -0.00     -0.00
  -0.00000001   0.00004231  -0.00000000         -0.00      6.22     -0.00
  -0.00000000  -0.00000000   0.00004439         -0.00     -0.00      6.53

     BFGS Geometry Optimization

     number of scf cycles    =   1
     number of bfgs steps    =   0

     energy   new            =   -1163.3920933186 Ry

     new trust radius        =       0.1301942056 bohr
     new conv_thr            =       0.0000099958 Ry

ATOMIC_POSITIONS (crystal)
Sc1      0.166666667   0.166666667   0.395942884    0   0   0
Sc1      0.666666667   0.166666667   0.395942884    0   0   0
Sc1      0.166666667   0.666666667   0.395942884    0   0   0
Sc1      0.666666667   0.666666667   0.395942884    0   0   0
Sc1      0.833333333   0.333333333   0.500000000    0   0   0
Sc1      0.333333333   0.333333333   0.500000000    0   0   0
Sc1      0.833333333   0.833333333   0.500000000    0   0   0
Sc1      0.333333333   0.833333333   0.500000000    0   0   0
Sc1     -0.000472578  -0.000468967   0.603941891
Sc1      0.500942153  -0.000471008   0.603942502
Sc1     -0.000472166   0.500940822   0.603942282
Sc1      0.500002508   0.499999011   0.603852487
S1       0.166666863   0.166666905   0.672439791
H1       0.166666623   0.166666601   0.727052647

     Writing output data file calc.save
     Check: negative starting charge=   -0.000234
     NEW-OLD atomic charge density approx. for the potential
     Check: negative starting charge=   -0.000231

[...]

     iteration #  1     ecut=    36.75 Ry     beta=0.30
     Davidson diagonalization with overlap
     c_bands:  1 eigenvalues not converged
     ethr =  1.00E-06,  avg # of iterations = 14.8

[...]

     Total force =     0.042670     Total SCF correction =     0.006792
     SCF correction compared to forces is large: reduce conv_thr to get better values

[...]

     energy   old            =   -1163.3920933186 Ry
     energy   new            =   -1163.4028270645 Ry

     CASE: energy  _new < energy  _old

[...]

     iteration # 12     ecut=    36.75 Ry     beta=0.30
     Davidson diagonalization with overlap
     c_bands:  1 eigenvalues not converged
     ethr =  6.57E-10,  avg # of iterations =  4.6

[...]

     Total force =     0.009068     Total SCF correction =     0.000191

[...]

     number of scf cycles    =  11
     number of bfgs steps    =  10

     energy   old            =   -1163.4066396720 Ry
     energy   new            =   -1163.4067090076 Ry

     CASE: energy  _new < energy  _old

     new trust radius        =       0.0052471904 bohr
     new conv_thr            =       0.0000001000 Ry

ATOMIC_POSITIONS (crystal)
Sc1      0.166666667   0.166666667   0.395942884    0   0   0
Sc1      0.666666667   0.166666667   0.395942884    0   0   0
Sc1      0.166666667   0.666666667   0.395942884    0   0   0
Sc1      0.666666667   0.666666667   0.395942884    0   0   0
Sc1      0.833333333   0.333333333   0.500000000    0   0   0
Sc1      0.333333333   0.333333333   0.500000000    0   0   0
Sc1      0.833333333   0.833333333   0.500000000    0   0   0
Sc1      0.333333333   0.833333333   0.500000000    0   0   0
Sc1     -0.001247192  -0.001242437   0.603212650
Sc1      0.502451336  -0.001270267   0.603208057
Sc1     -0.001272397   0.502450741   0.603206671
Sc1      0.499990276   0.499986786   0.599008333
S1       0.166686795   0.166686597   0.675744334
H1       0.166674742   0.166676763   0.729643677

     Writing output data file calc.save
     Check: negative starting charge=   -0.000226
     NEW-OLD atomic charge density approx. for the potential
     Check: negative starting charge=   -0.000226

[...]

     Self-consistent Calculation

[...]

     Threshold (ethr) on eigenvalues was too large:
     Diagonalizing with lowered threshold

     Davidson diagonalization with overlap
     ethr =  2.75E-08,  avg # of iterations =  3.9

[...]

     total energy              =   -1163.40672834 Ry
     Harris-Foulkes estimate   =   -1163.40672827 Ry
     estimated scf accuracy    <       0.00000012 Ry

     iteration #  9     ecut=    36.75 Ry     beta=0.30
     Davidson diagonalization with overlap
     ethr =  8.98E-11,  avg # of iterations =  7.0

[...]

     negative rho (up, down):  9.448E-05 0.000E+00

     Adding external electric field

     Computed dipole along edir(3) :
        Dipole                0.2112 Ry au,          0.5367 Debye
        Dipole field          0.0004 Ry au

        Potential amp.       -0.0404 Ry
        Total length         46.5341 bohr

     End of self-consistent calculation

[...]

          k = 0.0518-0.0598 0.0000 ( 23012 PWs)   bands (ev):

[...]

          k =-0.0777-0.0448 0.0000 ( 23032 PWs)   bands (ev):

   -49.0144 -49.0140 -48.9914 -48.9910 -48.9364 -48.8814 -48.8676 -48.8576
   -48.5194 -48.5192 -48.4970 -48.4970 -27.6916 -27.6882 -27.6854 -27.6850
   -27.6694 -27.6573 -27.6572 -27.5970 -27.5848 -27.5830 -27.5719 -27.5600
   -27.5569 -27.5559 -27.5406 -27.5255 -27.4935 -27.4747 -27.4504 -27.4496
   -27.4473 -27.4409 -27.3569 -27.3235 -27.2073 -27.2055 -27.1146 -27.1132
   -27.0928 -27.0907 -27.0843 -27.0825 -27.0760 -27.0722 -26.9906 -26.9885
   -13.7034  -6.5696  -3.3873  -3.1660  -2.4644  -2.3948  -1.3883  -1.3215
    -0.6066  -0.5776  -0.2415  -0.1906  -0.0438  -0.0203   0.6432   0.6468
     0.6555   0.7264   0.7443   0.7875   0.9369   0.9796   0.9859   1.0200
     1.0561   1.1520   1.2054   1.2536   1.3003   1.3492   1.4380

     the Fermi energy is     0.9197 ev

!    total energy              =   -1163.40672829 Ry
     Harris-Foulkes estimate   =   -1163.40672856 Ry
     estimated scf accuracy    <       0.00000009 Ry

     The total energy is the sum of the following terms:

     one-electron contribution =   -7420.13130457 Ry
     hartree contribution      =    3696.10069898 Ry
     xc contribution           =    -176.10051496 Ry
     ewald contribution        =    2736.86076389 Ry
     electric field correction =       0.00009160 Ry
     smearing contrib. (-TS)   =      -0.13646323 Ry

     convergence has been achieved in   9 iterations

 BEEF-vdW xc energy contributions
           1 :   -149.207915288383
           2 :    131.228839321131
           3 :   -103.109362449990
           4 :    75.5700023921229
           5 :   -56.2416003144043
           6 :    46.6339984853315
           7 :   -43.3066038835253
           8 :    41.5505558436913
           9 :   -38.6264290462007
          10 :    34.6177300964686
          11 :   -31.0736246958184
          12 :    29.0683329522585
          13 :   -28.2764924768335
          14 :    27.5049904645732
          15 :   -25.9036472025662
          16 :    23.6864114165498
          17 :   -21.8036435091462
          18 :    20.9836003979519
          19 :   -21.0634896367305
          20 :    21.1771414376973
          21 :   -20.5535494481012
          22 :    19.1641410644019
          23 :   -17.6675278916326
          24 :    16.7702819684784
          25 :   -16.6180149193415
          26 :    16.7366180223700
          27 :   -16.5123366269044
          28 :    15.7353178565462
          29 :   -14.7296392099530
          30 :    14.0027780150061
          31 :   -17.6571547466944
          32 :   -12.6228143445190

     Forces acting on atoms (Ry/au):

     negative rho (up, down):  9.448E-05 0.000E+00
     atom    1 type  1   force =    -0.00000675    0.00000339    0.00167649
     atom    2 type  1   force =     0.00001656   -0.00067068    0.00065599
     atom    3 type  1   force =    -0.00057868    0.00034608    0.00067048
     atom    4 type  1   force =     0.00058905    0.00033271    0.00065975
     atom    5 type  1   force =    -0.00050697    0.00028659   -0.00077510
     atom    6 type  1   force =     0.00049815    0.00027208   -0.00076669
     atom    7 type  1   force =    -0.00000770    0.00001069   -0.00660373
     atom    8 type  1   force =     0.00000807   -0.00057471   -0.00076070
     atom    9 type  1   force =    -0.00079312   -0.00045089    0.00141709
     atom   10 type  1   force =     0.00078927   -0.00044274    0.00142684
     atom   11 type  1   force =     0.00000508    0.00090036    0.00142396
     atom   12 type  1   force =    -0.00000408   -0.00000995    0.00030981
     atom   13 type  2   force =    -0.00001214   -0.00000556    0.00052323
     atom   14 type  3   force =     0.00000329    0.00000263    0.00014257

     Total force =     0.002987     Total SCF correction =     0.000673
     SCF correction compared to forces is large: reduce conv_thr to get better values

     entering subroutine stress ...

     negative rho (up, down):  9.448E-05 0.000E+00
          total   stress  (Ry/bohr**3)                   (kbar)     P=    4.07
   0.00004214  -0.00000001   0.00000001          6.20     -0.00      0.00
  -0.00000001   0.00004214   0.00000000         -0.00      6.20      0.00
   0.00000001   0.00000000  -0.00000129          0.00      0.00     -0.19

     bfgs converged in  12 scf cycles and  11 bfgs steps
     (criteria: energy <  1.0E+00, force <  1.9E-03)

     End of BFGS Geometry Optimization

     Final energy   =   -1163.4067282896 Ry
Begin final coordinates

ATOMIC_POSITIONS (crystal)
Sc1      0.166666667   0.166666667   0.395942884    0   0   0
Sc1      0.666666667   0.166666667   0.395942884    0   0   0
Sc1      0.166666667   0.666666667   0.395942884    0   0   0
Sc1      0.666666667   0.666666667   0.395942884    0   0   0
Sc1      0.833333333   0.333333333   0.500000000    0   0   0
Sc1      0.333333333   0.333333333   0.500000000    0   0   0
Sc1      0.833333333   0.833333333   0.500000000    0   0   0
Sc1      0.333333333   0.833333333   0.500000000    0   0   0
Sc1     -0.001247192  -0.001242437   0.603212650
Sc1      0.502451336  -0.001270267   0.603208057
Sc1     -0.001272397   0.502450741   0.603206671
Sc1      0.499990276   0.499986786   0.599008333
S1       0.166686795   0.166686597   0.675744334
H1       0.166674742   0.166676763   0.729643677
End final coordinates

     Writing output data file calc.save

     General routines

     Parallel routines

   This run was terminated on:  23:37:36  22Apr2018

   JOB DONE.