     Program PWSCF v.5.1rc2 (svn rev. 11289) starts on 24Apr2018 at 15:38:44

     Current dimensions of program PWSCF are:
     Max number of different atomic species (ntypx) = 10
     Max number of k-points (npk) =  40000
     Max angular momentum in pseudopotentials (lmaxx) =  3
     Presently stress not available with electric field

     IMPORTANT: XC functional enforced from input :
     Exchange-correlation      = BEEF-VDW ( 1  4 27 13 2)
     Any further DFT definition will be discarded
     Please, verify this is what you really want

     Subspace diagonalization in iterative solution of the eigenvalue problem:
     a serial algorithm will be used

     bravais-lattice index     =            0
     lattice parameter (alat)  =       1.8897  a.u.
     unit-cell volume          =    4704.3541 (a.u.)^3
     number of atoms/cell      =           14
     number of atomic types    =            3
     number of electrons       =       175.00
     number of Kohn-Sham states=           97
     kinetic-energy cutoff     =      36.7493  Ry
     charge density cutoff     =     367.4932  Ry
     convergence threshold     =      1.0E-05
     mixing beta               =       0.3000
     number of iterations used =           10  plain     mixing
     Exchange-correlation      = BEEF-VDW ( 1  4 27 13 2)
     nstep                     =           50

     celldm(1)=   1.889726  celldm(2)=   0.000000  celldm(3)=   0.000000
     celldm(4)=   0.000000  celldm(5)=   0.000000  celldm(6)=   0.000000

     crystal axes: (cart. coord. in units of alat)
               a(1) = (   5.712816   0.000000   0.000000 )
               a(2) = (   2.856408   4.947444   0.000000 )
               a(3) = (   0.000000   0.000000  24.664495 )

     reciprocal axes: (cart. coord. in units 2 pi/alat)
               b(1) = (  0.175045 -0.101062  0.000000 )
               b(2) = (  0.000000  0.202125  0.000000 )
               b(3) = (  0.000000  0.000000  0.040544 )

     PseudoPot. # 1 for W  read from file:
     /u/if/mamunm/psp/gbrv1.5pbe/W.UPF
     MD5 check sum: 9c083fa34c2a2ea0f02f1f893e16e1c8
     Pseudo is Ultrasoft + core correction, Zval = 14.0
     Generated by new atomic code, or converted to UPF format
     Using radial grid of  923 points,  8 beta functions with:
                l(1) =   0
                l(2) =   0
                l(3) =   0
                l(4) =   1
                l(5) =   1
                l(6) =   2
                l(7) =   2
                l(8) =   3
     Q(r) pseudized with  6 coefficients,  rinner =    1.350   1.350   1.350
                                                       1.350   1.350   1.350
                                                       1.350

     PseudoPot. # 2 for O  read from file:
     /u/if/mamunm/psp/gbrv1.5pbe/O.UPF
     MD5 check sum: 734c27235a0248c51dbae37a1fbe46ec
     Pseudo is Ultrasoft + core correction, Zval =  6.0
     Generated by new atomic code, or converted to UPF format
     Using radial grid of  737 points,  5 beta functions with:
                l(1) =   0
                l(2) =   0
                l(3) =   1
                l(4) =   1
                l(5) =   2
     Q(r) pseudized with  8 coefficients,  rinner =    0.900   0.900   0.900
                                                       0.900   0.900

     PseudoPot. # 3 for H  read from file:
     /u/if/mamunm/psp/gbrv1.5pbe/H.UPF
     MD5 check sum: 761ae9a214b05c3daf00ab9f6b793d6f
     Pseudo is Ultrasoft, Zval =  1.0
     Generated by new atomic code, or converted to UPF format
     Using radial grid of  615 points,  2 beta functions with:
                l(1) =   0
                l(2) =   0
     Q(r) pseudized with  8 coefficients,  rinner =    0.700

     vdW kernel table read from file vdW_kernel_table
     MD5 check sum: 095c7af220d748ca6e76c0b4c6cfb241

     atomic species   valence    mass     pseudopotential
        W1            14.00   183.84000     W ( 1.00)
        O1             6.00    15.99900     O ( 1.00)
        H1             1.00     1.00800     H ( 1.00)

     No symmetry found

   Cartesian axes

     site n.     atom                  positions (alat units)
         1           W1  tau(   1) = (   1.4282041   0.8245740  10.0000000  )
         2           W1  tau(   2) = (   4.2846123   0.8245740  10.0000000  )
         3           W1  tau(   3) = (   2.8564082   3.2982961  10.0000000  )
         4           W1  tau(   4) = (   5.7128165   3.2982961  10.0000000  )
         5           W1  tau(   5) = (   5.7128165   1.6491481  12.3322476  )
         6           W1  tau(   6) = (   2.8564082   1.6491481  12.3322476  )
         7           W1  tau(   7) = (   7.1410206   4.1228701  12.3322476  )
         8           W1  tau(   8) = (   4.2846123   4.1228701  12.3322476  )
         9           W1  tau(   9) = (   0.0000000   0.0000000  14.6644951  )
        10           W1  tau(  10) = (   2.8564082   0.0000000  14.6644951  )
        11           W1  tau(  11) = (   1.4282041   2.4737221  14.6644951  )
        12           W1  tau(  12) = (   4.2846123   2.4737221  14.6644951  )
        13           O1  tau(  13) = (   0.0000000   0.0000000  16.6024951  )
        14           H1  tau(  14) = (   0.0000000   0.0000000  17.5524951  )

     number of k points=    20  Fermi-Dirac smearing, width (Ry)=  0.0110
                       cart. coord. in units 2pi/alat
        k(    1) = (   0.0000000   0.0000000   0.0000000), wk =   0.0555556
        k(    2) = (   0.0000000   0.0336874   0.0000000), wk =   0.1111111
        k(    3) = (   0.0000000   0.0673749   0.0000000), wk =   0.1111111
        k(    4) = (   0.0000000  -0.1010623   0.0000000), wk =   0.0555556
        k(    5) = (   0.0291742  -0.0168437   0.0000000), wk =   0.1111111
        k(    6) = (   0.0291742   0.0168437   0.0000000), wk =   0.1111111
        k(    7) = (   0.0291742   0.0505311   0.0000000), wk =   0.1111111
        k(    8) = (   0.0291742  -0.1179060   0.0000000), wk =   0.1111111
        k(    9) = (   0.0291742  -0.0842186   0.0000000), wk =   0.1111111
        k(   10) = (   0.0291742  -0.0505311   0.0000000), wk =   0.1111111
        k(   11) = (   0.0583483  -0.0336874   0.0000000), wk =   0.1111111
        k(   12) = (   0.0583483  -0.0000000   0.0000000), wk =   0.1111111
        k(   13) = (   0.0583483   0.0336874   0.0000000), wk =   0.1111111
        k(   14) = (   0.0583483  -0.1347497   0.0000000), wk =   0.1111111
        k(   15) = (   0.0583483  -0.1010623   0.0000000), wk =   0.1111111
        k(   16) = (   0.0583483  -0.0673749   0.0000000), wk =   0.1111111
        k(   17) = (  -0.0875225   0.0505311   0.0000000), wk =   0.0555556
        k(   18) = (  -0.0875225   0.0842186   0.0000000), wk =   0.1111111
        k(   19) = (  -0.0875225   0.1179060   0.0000000), wk =   0.1111111
        k(   20) = (  -0.0875225  -0.0505311   0.0000000), wk =   0.0555556

     Largest allocated arrays     est. size (Mb)     dimensions
     Largest temporary arrays     est. size (Mb)     dimensions

     Initial potential from superposition of free atoms
     Check: negative starting charge=   -0.760441

     starting charge  173.79591, renormalised to  175.00000

     negative rho (up, down):  7.657E-01 0.000E+00

     *
     * You are using vdW-DF for exchange-correlation in this calculation.
     * Please cite the following three references that made this development
     * possible:
     *
     *   M. Dion, H. Rydberg, E. Schroder, D. C. Langreth, and
     *   B. I. Lundqvist, Phys. Rev. Lett. 92, 246401 (2004).
     *
     *   T. Thonhauser, V. R. Cooper, S. Li, A. Puzder, P. Hyldgaard, and
     *   D. C. Langreth, Phys. Rev. B 76, 125112 (2007).
     *
     *   G. Roman-Perez and J. M. Soler, Phys. Rev. Lett. 103, 096102 (2009).
     *
     *
     * If you are using vdW-DF2, please also cite:
     *
     *   K. Lee, E. D. Murray, L. Kong, B. I. Lundqvist, and
     *   D. C. Langreth, Phys. Rev. B 82, 081101(R) (2010).
     *
     *
     * If you are calculating the stress with vdW-DF, please also cite:
     *
     *   R. Sabatini, E. Kucukbenli, B. Kolb, T. Thonhauser, and
     *   S. de Gironcoli, J. Phys.: Condens. Matter 24, 424209 (2012).
     *

     Carrying out vdW-DF run using the following parameters:

     Nqs =      20    Nr_points =    1024   r_max =   100.000
     q_mesh =
               0.00001000     0.04494208     0.09755937     0.15916263
               0.23128650     0.31572767     0.41458969     0.53033537
               0.66584808     0.82450364     1.01025438     1.22772762
               1.48234092     1.78043706     2.12944203     2.53805004
               3.01644009     3.57652955     4.23227104     5.00000000

     Gradients computed in reciprocal space

     Adding external electric field

     Computed dipole along edir(3) :
        Dipole               -0.4037 Ry au,         -1.0261 Debye
        Dipole field         -0.0011 Ry au

        Potential amp.        0.0980 Ry
        Total length         45.4439 bohr

     Starting wfc are  161 randomized atomic wfcs

     Self-consistent Calculation

     iteration #  1     ecut=    36.75 Ry     beta=0.30
     Davidson diagonalization with overlap
     ethr =  1.00E-02,  avg # of iterations =  2.0

[...]

     total energy              =   -1954.40653759 Ry
     Harris-Foulkes estimate   =   -1958.98608249 Ry
     estimated scf accuracy    <       9.68646789 Ry

[...]

     End of self-consistent calculation

          k = 0.0000 0.0000 0.0000 ( 17753 PWs)   bands (ev):

   -71.5137 -71.1488 -71.0945 -71.0796 -71.0560 -71.0435 -71.0432 -71.0332
   -71.0319 -71.0315 -71.0189 -71.0189 -35.9449 -35.7790 -35.7788 -35.7039
   -35.7039 -35.6870 -35.6239 -35.5467 -35.5467 -35.5123 -35.5052 -35.2812
   -35.1906 -35.1900 -35.1730 -35.1696 -35.1695 -35.0821 -35.0821 -35.0318
   -34.9945 -34.9871 -34.9870 -34.9382 -34.9382 -34.8983 -34.8932 -34.8533
   -34.8532 -34.8348 -34.8005 -34.8004 -34.7324 -34.7321 -34.6696 -34.6696
   -17.2821  -5.9787  -4.9972  -3.3300  -2.5296  -2.0557  -2.0556  -1.9241
    -1.7591  -1.7591  -1.6628  -1.3521  -1.3521  -0.9848  -0.9847  -0.9578
    -0.8640  -0.7531  -0.7531   0.5464   0.8430   0.8432   1.7082   1.7779
     1.8340   1.8340   2.0800   2.4868   2.4868   2.5268   2.5985   2.5988
     2.8110   2.8110   2.9067   2.9067   2.9150   3.0655   3.0656   3.1116
     3.6558   3.8270   4.0847   4.0848   4.7006   4.7007   4.7230   4.9327
     5.1820

[...]

          k =-0.0875 0.0505 0.0000 ( 17668 PWs)   bands (ev):

[...]

     the Fermi energy is     3.0802 ev

!    total energy              =   -1958.52698977 Ry
     Harris-Foulkes estimate   =   -1958.52701022 Ry
     estimated scf accuracy    <       0.00000318 Ry

     The total energy is the sum of the following terms:

     one-electron contribution =  -15042.33092669 Ry
     hartree contribution      =    7510.84462723 Ry
     xc contribution           =    -518.71144727 Ry
     ewald contribution        =    6091.76944782 Ry
     electric field correction =       0.00054075 Ry
     smearing contrib. (-TS)   =      -0.09923160 Ry

     convergence has been achieved in  18 iterations

 BEEF-vdW xc energy contributions
           1 :   -456.194091054275
           2 :    421.718678070908
           3 :   -361.142884344546
           4 :    287.875712540404
           5 :   -215.724333311887
           6 :    154.933355970628
           7 :   -110.076350164938
           8 :    80.2111228930929
           9 :   -60.8678023947461
          10 :    46.7755374299689
          11 :   -34.1186448659294
          12 :    21.5245289134659
          13 :   -9.69267495503811
          14 :   0.186172276923116
          15 :    5.84050664283598
          16 :   -8.37092874497148
          17 :    8.50002386131155
          18 :   -7.82229795291295
          19 :    7.63697107995699
          20 :   -8.40428709613411
          21 :    9.70376427865654
          22 :   -10.6561236697653
          23 :    10.5318266377171
          24 :   -9.20201714850509
          25 :    7.20475588497504
          26 :   -5.42854506658182
          27 :    4.61539662942528
          28 :   -4.96431005098918
          29 :    6.04772196005354
          30 :   -7.07427756980104
          31 :   -41.4266737873761
          32 :   -30.9594939260670

     Forces acting on atoms (Ry/au):

     negative rho (up, down):  7.920E-01 0.000E+00
     atom    1 type  1   force =     0.00010577    0.00006285   -0.00220627
     atom    2 type  1   force =    -0.00011152    0.00007650   -0.00220486
     atom    3 type  1   force =     0.00000282   -0.00013801   -0.00221567
     atom    4 type  1   force =    -0.00001782   -0.00001644   -0.00490253
     atom    5 type  1   force =    -0.00002029   -0.00129482    0.00077070
     atom    6 type  1   force =     0.00003620    0.00001070    0.00490961
     atom    7 type  1   force =     0.00111268    0.00065187    0.00077022
     atom    8 type  1   force =    -0.00111917    0.00064129    0.00078685
     atom    9 type  1   force =    -0.00000089    0.00000294    0.08664246
     atom   10 type  1   force =     0.00000663   -0.00168243   -0.03185827
     atom   11 type  1   force =    -0.00146127    0.00084306   -0.03188285
     atom   12 type  1   force =     0.00146891    0.00084389   -0.03205119
     atom   13 type  2   force =    -0.00000094    0.00000011   -0.02328384
     atom   14 type  3   force =    -0.00000112   -0.00000151    0.03672565

     Total force =     0.111647     Total SCF correction =     0.008078

     entering subroutine stress ...

     negative rho (up, down):  7.920E-01 0.000E+00
          total   stress  (Ry/bohr**3)                   (kbar)     P=  -43.12
  -0.00041816   0.00000001  -0.00000000        -61.51      0.00     -0.00
   0.00000001  -0.00041819   0.00000001          0.00    -61.52      0.00
  -0.00000000   0.00000001  -0.00004306         -0.00      0.00     -6.33

     BFGS Geometry Optimization

     number of scf cycles    =   1
     number of bfgs steps    =   0

     energy   new            =   -1958.5269897655 Ry

     new trust radius        =       0.0866424596 bohr
     new conv_thr            =       0.0000099958 Ry

ATOMIC_POSITIONS (crystal)
W1       0.166666667   0.166666667   0.405441099    0   0   0
W1       0.666666667   0.166666667   0.405441099    0   0   0
W1       0.166666667   0.666666667   0.405441099    0   0   0
W1       0.666666667   0.666666667   0.405441099    0   0   0
W1       0.833333333   0.333333333   0.500000000    0   0   0
W1       0.333333333   0.333333333   0.500000000    0   0   0
W1       0.833333333   0.833333333   0.500000000    0   0   0
W1       0.333333333   0.833333333   0.500000000    0   0   0
W1      -0.000000239   0.000000314   0.596417817
W1       0.500090590  -0.000179952   0.593875381
W1      -0.000180444   0.500090173   0.593874854
W1       0.500090934   0.500090262   0.593871242
O1      -0.000000093   0.000000012   0.672633831
H1      -0.000000023  -0.000000161   0.712438240

     Writing output data file calc.save
     Check: negative starting charge=   -0.760441
     NEW-OLD atomic charge density approx. for the potential
     Check: negative starting charge=   -0.762528

[...]

     energy   old            =   -1958.5269897655 Ry
     energy   new            =   -1958.5358045385 Ry

     CASE: energy  _new < energy  _old

[...]

     Total force =     0.004902     Total SCF correction =     0.000358

[...]

     number of scf cycles    =  12
     number of bfgs steps    =  11

     energy   old            =   -1958.6016861442 Ry
     energy   new            =   -1958.6019364578 Ry

     CASE: energy  _new < energy  _old

     new trust radius        =       0.0107690339 bohr
     new conv_thr            =       0.0000001000 Ry

ATOMIC_POSITIONS (crystal)
W1       0.166666667   0.166666667   0.405441099    0   0   0
W1       0.666666667   0.166666667   0.405441099    0   0   0
W1       0.166666667   0.666666667   0.405441099    0   0   0
W1       0.666666667   0.666666667   0.405441099    0   0   0
W1       0.833333333   0.333333333   0.500000000    0   0   0
W1       0.333333333   0.333333333   0.500000000    0   0   0
W1       0.833333333   0.833333333   0.500000000    0   0   0
W1       0.333333333   0.833333333   0.500000000    0   0   0
W1       0.000001935  -0.000001886   0.614574014
W1       0.502982127  -0.005972576   0.588239342
W1      -0.005964570   0.502970768   0.588241426
W1       0.502968285   0.502975387   0.588252108
O1       0.000003852   0.000004501   0.690257760
H1      -0.000001011  -0.000003488   0.729338784

     Writing output data file calc.save
     Check: negative starting charge=   -0.761828
     NEW-OLD atomic charge density approx. for the potential
     Check: negative starting charge=   -0.761855

[...]

     Self-consistent Calculation

[...]

     Threshold (ethr) on eigenvalues was too large:
     Diagonalizing with lowered threshold

     Davidson diagonalization with overlap
     ethr =  5.78E-08,  avg # of iterations =  1.6

[...]

     total energy              =   -1958.60196083 Ry
     Harris-Foulkes estimate   =   -1958.60196123 Ry
     estimated scf accuracy    <       0.00000021 Ry

     iteration # 10     ecut=    36.75 Ry     beta=0.30
     Davidson diagonalization with overlap
     ethr =  1.03E-10,  avg # of iterations =  1.3

[...]

     negative rho (up, down):  7.936E-01 0.000E+00

     Adding external electric field

     Computed dipole along edir(3) :
        Dipole                0.6016 Ry au,          1.5292 Debye
        Dipole field          0.0016 Ry au

        Potential amp.       -0.1461 Ry
        Total length         45.4439 bohr

     End of self-consistent calculation

[...]

          k = 0.0583-0.0674 0.0000 ( 17692 PWs)   bands (ev):

[...]

          k =-0.0875-0.0505 0.0000 ( 17668 PWs)   bands (ev):

   -71.6119 -70.9312 -70.9130 -70.8942 -70.8800 -70.8741 -70.8736 -70.8575
   -70.8234 -70.7872 -70.7694 -70.7609 -36.1156 -35.5211 -35.4625 -35.4262
   -35.4010 -35.3824 -35.3288 -35.3199 -35.2857 -35.2291 -35.1816 -35.1711
   -35.1673 -35.0909 -34.9796 -34.9795 -34.9516 -34.9422 -34.9302 -34.9229
   -34.8939 -34.8810 -34.8708 -34.8118 -34.7782 -34.7643 -34.7621 -34.7392
   -34.6862 -34.6804 -34.6254 -34.6056 -34.6045 -34.5869 -34.5642 -34.5062
   -17.7402  -6.4289  -3.0453  -2.9012  -1.7709  -1.7358  -1.5463  -1.3400
    -0.8079  -0.7449  -0.6911  -0.6425  -0.5541  -0.4860   0.1659   0.1910
     0.3877   0.4787   0.6219   0.7802   0.9048   1.0185   1.0457   1.1781
     1.3479   1.3986   1.6058   1.8984   1.9066   2.0358   2.1345   2.1757
     2.1889   2.3304   2.4063   2.4525   2.4999   2.7901   2.8283   2.9661
     3.2564   3.4053   3.8296   3.8978   4.1192   4.2574   4.4400   4.4456
     4.6039

     the Fermi energy is     3.2557 ev

!    total energy              =   -1958.60196082 Ry
     Harris-Foulkes estimate   =   -1958.60196041 Ry
     estimated scf accuracy    <       0.00000005 Ry

     The total energy is the sum of the following terms:

     one-electron contribution =  -14873.29967912 Ry
     hartree contribution      =    7427.06657397 Ry
     xc contribution           =    -518.74122549 Ry
     ewald contribution        =    6006.45564901 Ry
     electric field correction =       0.00096693 Ry
     smearing contrib. (-TS)   =      -0.08424612 Ry

     convergence has been achieved in  10 iterations

 BEEF-vdW xc energy contributions
           1 :   -456.223276398683
           2 :    421.727645867768
           3 :   -361.148132148591
           4 :    287.895903239369
           5 :   -215.748232001587
           6 :    154.925416582698
           7 :   -109.993961013123
           8 :    80.0251079037761
           9 :   -60.5801056548545
          10 :    46.4254107449878
          11 :   -33.7715264933472
          12 :    21.2410640631902
          13 :   -9.48901605560718
          14 :   1.504690037995715E-002
          15 :    6.06525114372397
          16 :   -8.72046651371636
          17 :    8.98066372413268
          18 :   -8.35775511859003
          19 :    8.10016338586888
          20 :   -8.68721976860286
          21 :    9.78355862804517
          22 :   -10.6159776753335
          23 :    10.5209265895859
          24 :   -9.35297195234062
          25 :    7.55727028640410
          26 :   -5.90449835886363
          27 :    5.05686281038754
          28 :   -5.21813511735672
          29 :    6.05454993764442
          30 :   -6.90507334264657
          31 :   -41.4267651245252
          32 :   -30.9543116138342

     Forces acting on atoms (Ry/au):

     negative rho (up, down):  7.936E-01 0.000E+00
     atom    1 type  1   force =    -0.00039866   -0.00022958    0.00426083
     atom    2 type  1   force =     0.00040250   -0.00023068    0.00426536
     atom    3 type  1   force =     0.00000130    0.00046476    0.00426609
     atom    4 type  1   force =     0.00000043    0.00000068   -0.01050981
     atom    5 type  1   force =    -0.00001669   -0.03944217    0.01068276
     atom    6 type  1   force =     0.00002218    0.00001745   -0.03358872
     atom    7 type  1   force =     0.03416328    0.01972082    0.01063903
     atom    8 type  1   force =    -0.03416739    0.01970615    0.01067355
     atom    9 type  1   force =    -0.00001204   -0.00000504   -0.00007290
     atom   10 type  1   force =     0.00000560   -0.00054194   -0.00005655
     atom   11 type  1   force =    -0.00047535    0.00027002   -0.00007224
     atom   12 type  1   force =     0.00047661    0.00027106   -0.00015136
     atom   13 type  2   force =    -0.00000107   -0.00000085   -0.00022263
     atom   14 type  3   force =    -0.00000070   -0.00000066   -0.00011343

     Total force =     0.000996     Total SCF correction =     0.000914
     SCF correction compared to forces is large: reduce conv_thr to get better values

     entering subroutine stress ...

     negative rho (up, down):  7.936E-01 0.000E+00
          total   stress  (Ry/bohr**3)                   (kbar)     P=  -42.30
  -0.00038925  -0.00000002  -0.00000002        -57.26     -0.00     -0.00
  -0.00000002  -0.00038922  -0.00000001         -0.00    -57.26     -0.00
  -0.00000002  -0.00000001  -0.00008424         -0.00     -0.00    -12.39

     bfgs converged in  13 scf cycles and  12 bfgs steps
     (criteria: energy <  1.0E+00, force <  1.9E-03)

     End of BFGS Geometry Optimization

     Final energy   =   -1958.6019608154 Ry
Begin final coordinates

ATOMIC_POSITIONS (crystal)
W1       0.166666667   0.166666667   0.405441099    0   0   0
W1       0.666666667   0.166666667   0.405441099    0   0   0
W1       0.166666667   0.666666667   0.405441099    0   0   0
W1       0.666666667   0.666666667   0.405441099    0   0   0
W1       0.833333333   0.333333333   0.500000000    0   0   0
W1       0.333333333   0.333333333   0.500000000    0   0   0
W1       0.833333333   0.833333333   0.500000000    0   0   0
W1       0.333333333   0.833333333   0.500000000    0   0   0
W1       0.000001935  -0.000001886   0.614574014
W1       0.502982127  -0.005972576   0.588239342
W1      -0.005964570   0.502970768   0.588241426
W1       0.502968285   0.502975387   0.588252108
O1       0.000003852   0.000004501   0.690257760
H1      -0.000001011  -0.000003488   0.729338784
End final coordinates

     Writing output data file calc.save

     General routines

     Parallel routines

   This run was terminated on:  17:47:17  24Apr2018

   JOB DONE.
Job  /afs/slac/g/suncat/bin/suncat-tsmpirun -x LD_LIBRARY_PATH -wdir /scratch/qe894073_wopVu pw.x -npool 4 -in pw.inp

TID   HOST_NAME   COMMAND_LINE            STATUS            TERMINATION_TIME
00000 suncat0249 pw.x -npool 4 -i  Done                     04/24/2018 17:47:17
00001 suncat0249 pw.x -npool 4 -i  Done                     04/24/2018 17:47:17
00002 suncat0249 pw.x -npool 4 -i  Done                     04/24/2018 17:47:17
00003 suncat0249 pw.x -npool 4 -i  Done                     04/24/2018 17:47:17
00004 suncat0249 pw.x -npool 4 -i  Done                     04/24/2018 17:47:17
00005 suncat0249 pw.x -npool 4 -i  Done                     04/24/2018 17:47:17
00006 suncat0249 pw.x -npool 4 -i  Done                     04/24/2018 17:47:17
00007 suncat0249 pw.x -npool 4 -i  Done                     04/24/2018 17:47:17
00008 suncat0240 pw.x -npool 4 -i  Done                     04/24/2018 17:47:17
00009 suncat0240 pw.x -npool 4 -i  Done                     04/24/2018 17:47:17
00010 suncat0240 pw.x -npool 4 -i  Done                     04/24/2018 17:47:17
00011 suncat0240 pw.x -npool 4 -i  Done                     04/24/2018 17:47:17
00012 suncat0240 pw.x -npool 4 -i  Done                     04/24/2018 17:47:17
00013 suncat0240 pw.x -npool 4 -i  Done                     04/24/2018 17:47:17
00014 suncat0240 pw.x -npool 4 -i  Done                     04/24/2018 17:47:17
00015 suncat0240 pw.x -npool 4 -i  Done                     04/24/2018 17:47:17
00016 suncat0237 pw.x -npool 4 -i  Done                     04/24/2018 17:47:17
00017 suncat0237 pw.x -npool 4 -i  Done                     04/24/2018 17:47:17
00018 suncat0237 pw.x -npool 4 -i  Done                     04/24/2018 17:47:17
00019 suncat0237 pw.x -npool 4 -i  Done                     04/24/2018 17:47:17
00020 suncat0237 pw.x -npool 4 -i  Done                     04/24/2018 17:47:17
00021 suncat0237 pw.x -npool 4 -i  Done                     04/24/2018 17:47:17
00022 suncat0237 pw.x -npool 4 -i  Done                     04/24/2018 17:47:17
00023 suncat0237 pw.x -npool 4 -i  Done                     04/24/2018 17:47:17
00024 suncat0230 pw.x -npool 4 -i  Done                     04/24/2018 17:47:17
00025 suncat0230 pw.x -npool 4 -i  Done                     04/24/2018 17:47:17
00026 suncat0230 pw.x -npool 4 -i  Done                     04/24/2018 17:47:17
00027 suncat0230 pw.x -npool 4 -i  Done                     04/24/2018 17:47:17
00028 suncat0230 pw.x -npool 4 -i  Done                     04/24/2018 17:47:17
00029 suncat0230 pw.x -npool 4 -i  Done                     04/24/2018 17:47:17
00030 suncat0230 pw.x -npool 4 -i  Done                     04/24/2018 17:47:17
00031 suncat0230 pw.x -npool 4 -i  Done                     04/24/2018 17:47:17