     Program PWSCF v.5.1rc2 (svn rev. 11289) starts on  2May2018 at 12:12:38

     Current dimensions of program PWSCF are:
     Max number of different atomic species (ntypx) = 10
     Max number of k-points (npk) =  40000
     Max angular momentum in pseudopotentials (lmaxx) =  3
     Presently stress not available with electric field

     IMPORTANT: XC functional enforced from input :
     Exchange-correlation      = BEEF-VDW ( 1  4 27 13 2)
     Any further DFT definition will be discarded
     Please, verify this is what you really want

     Subspace diagonalization in iterative solution of the eigenvalue problem:
     a serial algorithm will be used

     bravais-lattice index     =            0
     lattice parameter (alat)  =       1.8897  a.u.
     unit-cell volume          =    3807.2308 (a.u.)^3
     number of atoms/cell      =           13
     number of atomic types    =            2
     number of electrons       =       234.00
     number of Kohn-Sham states=          127
     kinetic-energy cutoff     =      36.7493  Ry
     charge density cutoff     =     367.4932  Ry
     convergence threshold     =      1.0E-05
     mixing beta               =       0.3000
     number of iterations used =           10  plain     mixing
     Exchange-correlation      = BEEF-VDW ( 1  4 27 13 2)
     nstep                     =           50

     celldm(1)=   1.889726  celldm(2)=   0.000000  celldm(3)=   0.000000
     celldm(4)=   0.000000  celldm(5)=   0.000000  celldm(6)=   0.000000

     crystal axes: (cart. coord. in units of alat)
               a(1) = (   5.184823   0.000000   0.000000 )
               a(2) = (   2.592411   4.490188   0.000000 )
               a(3) = (   0.000000   0.000000  24.233390 )

     reciprocal axes: (cart. coord. in units 2 pi/alat)
               b(1) = (  0.192871 -0.111354  0.000000 )
               b(2) = (  0.000000  0.222708  0.000000 )
               b(3) = (  0.000000  0.000000  0.041265 )

     PseudoPot. # 1 for Cu read from file:
     /u/if/mamunm/psp/gbrv1.5pbe/Cu.UPF
     MD5 check sum: 6e991ff952a84172a2a52a1c1e996048
     Pseudo is Ultrasoft + core correction, Zval = 19.0
     Generated by new atomic code, or converted to UPF format
     Using radial grid of  867 points,  6 beta functions with:
                l(1) =   0
                l(2) =   0
                l(3) =   1
                l(4) =   1
                l(5) =   2
                l(6) =   2
     Q(r) pseudized with  8 coefficients,  rinner =    1.150   1.150   1.150
                                                       1.150   1.150

     PseudoPot. # 2 for O  read from file:
     /u/if/mamunm/psp/gbrv1.5pbe/O.UPF
     MD5 check sum: 734c27235a0248c51dbae37a1fbe46ec
     Pseudo is Ultrasoft + core correction, Zval =  6.0
     Generated by new atomic code, or converted to UPF format
     Using radial grid of  737 points,  5 beta functions with:
                l(1) =   0
                l(2) =   0
                l(3) =   1
                l(4) =   1
                l(5) =   2
     Q(r) pseudized with  8 coefficients,  rinner =    0.900   0.900   0.900
                                                       0.900   0.900

     vdW kernel table read from file vdW_kernel_table
     MD5 check sum: 095c7af220d748ca6e76c0b4c6cfb241

     atomic species   valence    mass     pseudopotential
        Cu1           19.00    63.54600     Cu( 1.00)
        O1             6.00    15.99900     O ( 1.00)

     No symmetry found

   Cartesian axes

     site n.     atom                  positions (alat units)
         1           Cu1 tau(   1) = (   1.2962057   0.7483647  10.0000000  )
         2           Cu1 tau(   2) = (   3.8886170   0.7483647  10.0000000  )
         3           Cu1 tau(   3) = (   2.5924113   2.9934587  10.0000000  )
         4           Cu1 tau(   4) = (   5.1848226   2.9934587  10.0000000  )
         5           Cu1 tau(   5) = (   5.1848226   1.4967294  12.1166950  )
         6           Cu1 tau(   6) = (   2.5924113   1.4967294  12.1166950  )
         7           Cu1 tau(   7) = (   6.4810283   3.7418234  12.1166950  )
         8           Cu1 tau(   8) = (   3.8886170   3.7418234  12.1166950  )
         9           Cu1 tau(   9) = (   0.0000000   0.0000000  14.2333899  )
        10           Cu1 tau(  10) = (   2.5924113   0.0000000  14.2333899  )
        11           Cu1 tau(  11) = (   1.2962057   2.2450940  14.2333899  )
        12           Cu1 tau(  12) = (   3.8886170   2.2450940  14.2333899  )
        13           O1  tau(  13) = (   2.5924113   1.4967294  15.5203899  )

     number of k points=    20  Fermi-Dirac smearing, width (Ry)=  0.0110
                       cart. coord. in units 2pi/alat
        k(    1) = (   0.0000000   0.0000000   0.0000000), wk =   0.0555556
        k(    2) = (   0.0000000   0.0371180   0.0000000), wk =   0.1111111
        k(    3) = (   0.0000000   0.0742359   0.0000000), wk =   0.1111111
        k(    4) = (   0.0000000  -0.1113539   0.0000000), wk =   0.0555556
        k(    5) = (   0.0321451  -0.0185590   0.0000000), wk =   0.1111111
        k(    6) = (   0.0321451   0.0185590   0.0000000), wk =   0.1111111
        k(    7) = (   0.0321451   0.0556770   0.0000000), wk =   0.1111111
        k(    8) = (   0.0321451  -0.1299129   0.0000000), wk =   0.1111111
        k(    9) = (   0.0321451  -0.0927949   0.0000000), wk =   0.1111111
        k(   10) = (   0.0321451  -0.0556770   0.0000000), wk =   0.1111111
        k(   11) = (   0.0642902  -0.0371180   0.0000000), wk =   0.1111111
        k(   12) = (   0.0642902  -0.0000000   0.0000000), wk =   0.1111111
        k(   13) = (   0.0642902   0.0371180   0.0000000), wk =   0.1111111
        k(   14) = (   0.0642902  -0.1484719   0.0000000), wk =   0.1111111
        k(   15) = (   0.0642902  -0.1113539   0.0000000), wk =   0.1111111
        k(   16) = (   0.0642902  -0.0742359   0.0000000), wk =   0.1111111
        k(   17) = (  -0.0964353   0.0556770   0.0000000), wk =   0.0555556
        k(   18) = (  -0.0964353   0.0927949   0.0000000), wk =   0.1111111
        k(   19) = (  -0.0964353   0.1299129   0.0000000), wk =   0.1111111
        k(   20) = (  -0.0964353  -0.0556770   0.0000000), wk =   0.0555556

     Largest allocated arrays     est. size (Mb)     dimensions
     Largest temporary arrays     est. size (Mb)     dimensions

     Initial potential from superposition of free atoms
     Check: negative starting charge=   -0.000309

     starting charge  221.99997, renormalised to  234.00000

     negative rho (up, down):  3.259E-04 0.000E+00

     *
     * You are using vdW-DF for exchange-correlation in this calculation.
     * Please cite the following three references that made this development
     * possible:
     *
     *   M. Dion, H. Rydberg, E. Schroder, D. C. Langreth, and
     *   B. I. Lundqvist, Phys. Rev. Lett. 92, 246401 (2004).
     *
     *   T. Thonhauser, V. R. Cooper, S. Li, A. Puzder, P. Hyldgaard, and
     *   D. C. Langreth, Phys. Rev. B 76, 125112 (2007).
     *
     *   G. Roman-Perez and J. M. Soler, Phys. Rev. Lett. 103, 096102 (2009).
     *
     *
     * If you are using vdW-DF2, please also cite:
     *
     *   K. Lee, E. D. Murray, L. Kong, B. I. Lundqvist, and
     *   D. C. Langreth, Phys. Rev. B 82, 081101(R) (2010).
     *
     *
     * If you are calculating the stress with vdW-DF, please also cite:
     *
     *   R. Sabatini, E. Kucukbenli, B. Kolb, T. Thonhauser, and
     *   S. de Gironcoli, J. Phys.: Condens. Matter 24, 424209 (2012).
     *

     Carrying out vdW-DF run using the following parameters:

     Nqs =      20    Nr_points =    1024   r_max =   100.000
     q_mesh =
               0.00001000     0.04494208     0.09755937     0.15916263
               0.23128650     0.31572767     0.41458969     0.53033537
               0.66584808     0.82450364     1.01025438     1.22772762
               1.48234092     1.78043706     2.12944203     2.53805004
               3.01644009     3.57652955     4.23227104     5.00000000

     Gradients computed in reciprocal space

     Adding external electric field

     Computed dipole along edir(3) :
        Dipole               -2.0861 Ry au,         -5.3022 Debye
        Dipole field         -0.0069 Ry au

        Potential amp.        0.6149 Ry
        Total length         44.6496 bohr

     Starting wfc are  160 randomized atomic wfcs

     Self-consistent Calculation

     iteration #  1     ecut=    36.75 Ry     beta=0.30
     Davidson diagonalization with overlap
     ethr =  1.00E-02,  avg # of iterations =  8.1

[...]

     total energy              =   -4547.91451454 Ry
     Harris-Foulkes estimate   =   -4888.73784933 Ry
     estimated scf accuracy    <     718.52806421 Ry

     iteration #  2     ecut=    36.75 Ry     beta=0.30
     Davidson diagonalization with overlap
     c_bands:  1 eigenvalues not converged
     ethr =  1.00E-02,  avg # of iterations = 21.4

[...]

     End of self-consistent calculation

          k = 0.0000 0.0000 0.0000 ( 14321 PWs)   bands (ev):

  -112.7204-112.7149-112.7144-112.6448-112.6327-112.6274-112.6272-112.4615
  -112.4516-112.4475-112.4442-112.2795 -70.1460 -70.1456 -70.1448 -70.1176
   -70.1088 -70.1086 -70.1084 -70.0845 -70.0841 -70.0815 -70.0552 -70.0551
   -70.0415 -70.0384 -70.0384 -70.0282 -70.0281 -70.0224 -69.9833 -69.9709
   -69.9707 -69.9120 -69.9108 -69.9040 -69.8598 -69.8592 -69.8550 -69.8392
   -69.8384 -69.8114 -69.8041 -69.8007 -69.7975 -69.7066 -69.7066 -69.6506
   -17.6322  -8.3466  -6.3965  -5.1093  -4.8359  -4.8358  -4.7172  -4.6403
    -4.5590  -4.5589  -4.2990  -4.2989  -4.2845  -4.0913  -4.0908  -4.0858
    -3.7499  -3.7498  -3.5551  -3.3417  -3.3414  -3.2732  -3.1200  -3.1199
    -3.0730  -3.0026  -3.0026  -2.9464  -2.8576  -2.8526  -2.8524  -2.7881
    -2.7880  -2.7266  -2.7264  -2.5940  -2.4855  -2.4849  -2.3803  -2.2621
    -2.2427  -2.2425  -2.1852  -2.1847  -2.0455  -2.0454  -1.9278  -1.9269
    -1.8579  -1.8127  -1.8120  -1.7666  -1.7664  -1.7463  -1.7445  -1.7244
    -1.7243  -1.6632  -1.5739  -1.5699  -1.5698  -1.5177  -1.5165  -1.5142
    -1.1665  -1.0479  -1.0479   0.0987   0.0987   0.2381   0.5983   1.1884
     1.1885   1.3339   1.5736   1.5737   3.2926   3.9271   4.2111

[...]

          k =-0.0964 0.0557 0.0000 ( 14294 PWs)   bands (ev):

[...]

     the Fermi energy is    -0.0958 ev

!    total energy              =   -4891.74283473 Ry
     Harris-Foulkes estimate   =   -4891.74280621 Ry
     estimated scf accuracy    <       0.00000816 Ry

     The total energy is the sum of the following terms:

     one-electron contribution =  -38028.43101191 Ry
     hartree contribution      =   19027.34353876 Ry
     xc contribution           =    -487.58072684 Ry
     ewald contribution        =   14596.95335657 Ry
     electric field correction =       0.00039477 Ry
     smearing contrib. (-TS)   =      -0.02838609 Ry

     convergence has been achieved in  30 iterations

 BEEF-vdW xc energy contributions
           1 :   -431.957063203584
           2 :    391.432451294952
           3 :   -322.840772929962
           4 :    245.103681850024
           5 :   -175.386268063175
           6 :    122.969069169395
           7 :   -87.8375538960388
           8 :    63.8832558391553
           9 :   -44.2226224310747
          10 :    25.3607675355821
          11 :   -8.13009740439884
          12 :   -4.43379428753667
          13 :    10.2798161424627
          14 :   -10.2716096478377
          15 :    7.74290635123401
          16 :   -6.31883790726016
          17 :    7.70598273467493
          18 :   -10.9623727288182
          19 :    13.5922967730173
          20 :   -13.5499066580523
          21 :    10.7083421936216
          22 :   -6.84703734822278
          23 :    4.29915915287211
          24 :   -4.31021015410624
          25 :    6.26485482767055
          26 :   -8.25166753472627
          27 :    8.48491778584082
          28 :   -6.54643768337826
          29 :    3.59528030731781
          30 :   -1.46281620591014
          31 :   -34.5581297759267
          32 :   -23.5852003139864

     Forces acting on atoms (Ry/au):

     negative rho (up, down):  1.160E-03 0.000E+00
     atom    1 type  1   force =    -0.00001129   -0.00000147    0.00579122
     atom    2 type  1   force =     0.00002065   -0.00003409    0.00546048
     atom    3 type  1   force =    -0.00003358    0.00005459    0.00480597
     atom    4 type  1   force =    -0.00001999    0.00004349    0.00214261
     atom    5 type  1   force =     0.00035991    0.00283969    0.00107729
     atom    6 type  1   force =    -0.00033605   -0.00001394   -0.01222457
     atom    7 type  1   force =    -0.00245366   -0.00164027    0.00124395
     atom    8 type  1   force =     0.00246507   -0.00122418    0.00123059
     atom    9 type  1   force =     0.00005085   -0.00000509   -0.01223867
     atom   10 type  1   force =    -0.00007407   -0.00325799    0.01539577
     atom   11 type  1   force =    -0.00273480    0.00156469    0.01531644
     atom   12 type  1   force =     0.00277020    0.00166553    0.01536315
     atom   13 type  2   force =    -0.00000324    0.00000904   -0.04336422

     Total force =     0.052620     Total SCF correction =     0.007542
     SCF correction compared to forces is large: reduce conv_thr to get better values

     entering subroutine stress ...

     negative rho (up, down):  1.160E-03 0.000E+00
          total   stress  (Ry/bohr**3)                   (kbar)     P=  -22.45
  -0.00015855  -0.00000000  -0.00000001        -23.32     -0.00     -0.00
  -0.00000000  -0.00015854   0.00000000         -0.00    -23.32      0.00
  -0.00000001   0.00000000  -0.00014071         -0.00      0.00    -20.70

     BFGS Geometry Optimization

     number of scf cycles    =   1
     number of bfgs steps    =   0

     energy   new            =   -4891.7428347325 Ry

     new trust radius        =       0.0433642176 bohr
     new conv_thr            =       0.0000099958 Ry

ATOMIC_POSITIONS (crystal)
Cu1      0.166666667   0.166666667   0.412653782    0   0   0
Cu1      0.666666667   0.166666667   0.412653782    0   0   0
Cu1      0.166666667   0.666666667   0.412653782    0   0   0
Cu1      0.666666667   0.666666667   0.412653782    0   0   0
Cu1      0.833333333   0.333333333   0.500000000    0   0   0
Cu1      0.333333333   0.333333333   0.500000000    0   0   0
Cu1      0.833333333   0.833333333   0.500000000    0   0   0
Cu1      0.333333333   0.833333333   0.500000000    0   0   0
Cu1      0.000005489  -0.000000600   0.587078966
Cu1      0.500184421  -0.000383961   0.587682411
Cu1     -0.000371322   0.500184402   0.587680679
Cu1      0.500184591   0.500196286   0.587681699
O1       0.333332470   0.333334399   0.639507829

     Writing output data file calc.save
     Check: negative starting charge=   -0.000309
     NEW-OLD atomic charge density approx. for the potential
     Check: negative starting charge=   -0.000310

[...]

     energy   old            =   -4891.7428347325 Ry
     energy   new            =   -4891.7453505727 Ry

     CASE: energy  _new < energy  _old

[...]

     Total force =     0.031189     Total SCF correction =     0.001534

[...]

     Total force =     0.005251     Total SCF correction =     0.000570
     SCF correction compared to forces is large: reduce conv_thr to get better values

[...]

     number of scf cycles    =   9
     number of bfgs steps    =   8

     energy   old            =   -4891.7518958134 Ry
     energy   new            =   -4891.7519322042 Ry

     CASE: energy  _new < energy  _old

     new trust radius        =       0.0118622978 bohr
     new conv_thr            =       0.0000001000 Ry

ATOMIC_POSITIONS (crystal)
Cu1      0.166666667   0.166666667   0.412653782    0   0   0
Cu1      0.666666667   0.166666667   0.412653782    0   0   0
Cu1      0.166666667   0.666666667   0.412653782    0   0   0
Cu1      0.666666667   0.666666667   0.412653782    0   0   0
Cu1      0.833333333   0.333333333   0.500000000    0   0   0
Cu1      0.333333333   0.333333333   0.500000000    0   0   0
Cu1      0.833333333   0.833333333   0.500000000    0   0   0
Cu1      0.333333333   0.833333333   0.500000000    0   0   0
Cu1     -0.000005965   0.000002636   0.583861136
Cu1      0.505962173  -0.011924230   0.588709209
Cu1     -0.011927383   0.505964656   0.588708168
Cu1      0.505963818   0.505965438   0.588710823
O1       0.333329341   0.333332386   0.634610664

     Writing output data file calc.save
     Check: negative starting charge=   -0.000315
     NEW-OLD atomic charge density approx. for the potential
     Check: negative starting charge=   -0.000315

[...]

     Self-consistent Calculation

[...]

     total energy              =   -4891.75196654 Ry
     Harris-Foulkes estimate   =   -4891.75196630 Ry
     estimated scf accuracy    <       0.00000030 Ry

     iteration #  8     ecut=    36.75 Ry     beta=0.30
     Davidson diagonalization with overlap
     ethr =  1.27E-10,  avg # of iterations =  2.0

[...]

     negative rho (up, down):  1.216E-03 0.000E+00

     Adding external electric field

     Computed dipole along edir(3) :
        Dipole               -0.2575 Ry au,         -0.6545 Debye
        Dipole field         -0.0008 Ry au

        Potential amp.        0.0759 Ry
        Total length         44.6496 bohr

     End of self-consistent calculation

[...]

          k = 0.0643-0.0742 0.0000 ( 14299 PWs)   bands (ev):

[...]

          k =-0.0964-0.0557 0.0000 ( 14294 PWs)   bands (ev):

  -112.6033-112.6014-112.5995-112.5775-112.5738-112.5726-112.4989-112.3416
  -112.3187-112.3167-112.3150-112.2223 -70.0456 -70.0273 -70.0200 -70.0160
   -70.0098 -70.0064 -70.0042 -70.0009 -69.9925 -69.9906 -69.9871 -69.9743
   -69.9743 -69.9669 -69.9602 -69.9192 -69.9143 -69.9073 -69.9016 -69.8961
   -69.8832 -69.7770 -69.7627 -69.7604 -69.7403 -69.7364 -69.7361 -69.7245
   -69.7134 -69.6932 -69.6718 -69.6699 -69.6684 -69.6454 -69.6437 -69.6039
   -18.0141  -6.6001  -6.4345  -5.3271  -4.9419  -4.8223  -4.5507  -4.2863
    -4.2237  -4.1034  -4.0118  -3.9458  -3.8986  -3.7781  -3.6928  -3.6563
    -3.5347  -3.5288  -3.4183  -3.3400  -3.2799  -3.2658  -3.2442  -3.1947
    -3.1785  -3.1333  -2.9932  -2.9464  -2.8699  -2.8469  -2.8177  -2.7698
    -2.7320  -2.6756  -2.6618  -2.6588  -2.6309  -2.6134  -2.6059  -2.5803
    -2.5568  -2.5138  -2.3523  -2.3330  -2.3304  -2.2648  -2.2317  -2.1741
    -2.1636  -2.1428  -2.1368  -2.0603  -2.0171  -1.9539  -1.9424  -1.9361
    -1.8833  -1.8702  -1.7281  -1.6689  -1.6440  -1.6326  -1.5775  -1.5736
    -1.5325  -1.1197  -0.9645  -0.4367   0.0898   0.1154   0.7287   0.9783
     1.5332   2.1460   3.2706   3.4066   4.1374   5.1698   5.7755

     the Fermi energy is     0.0422 ev

!    total energy              =   -4891.75196656 Ry
     Harris-Foulkes estimate   =   -4891.75196595 Ry
     estimated scf accuracy    <       0.00000008 Ry

     The total energy is the sum of the following terms:

     one-electron contribution =  -38085.43039960 Ry
     hartree contribution      =   19056.54966251 Ry
     xc contribution           =    -487.64287877 Ry
     ewald contribution        =   14624.79911742 Ry
     electric field correction =       0.00021884 Ry
     smearing contrib. (-TS)   =      -0.02768698 Ry

     convergence has been achieved in   8 iterations

 BEEF-vdW xc energy contributions
           1 :   -432.026408381512
           2 :    391.532322314310
           3 :   -322.958768478559
           4 :    245.189498690938
           5 :   -175.391955563531
           6 :    122.885528746684
           7 :   -87.7030489883315
           8 :    63.7598792097482
           9 :   -44.1583893720531
          10 :    25.3630908304124
          11 :   -8.16719518648813
          12 :   -4.40607704565332
          13 :    10.2856623006010
          14 :   -10.3009989393307
          15 :    7.76370655635344
          16 :   -6.30370228051106
          17 :    7.65440491814070
          18 :   -10.9030994556521
          19 :    13.5649205682926
          20 :   -13.5782956234775
          21 :    10.7827616298097
          22 :   -6.92696881993658
          23 :    4.33684157957225
          24 :   -4.28073201740233
          25 :    6.18352804026796
          26 :   -8.16625813941255
          27 :    8.44498602251377
          28 :   -6.56922301674672
          29 :    3.65251768428112
          30 :   -1.49862828699088
          31 :   -34.5627315097158
          32 :   -23.5934481953399

     Forces acting on atoms (Ry/au):

     negative rho (up, down):  1.216E-03 0.000E+00
     atom    1 type  1   force =    -0.00018512   -0.00010693    0.00336614
     atom    2 type  1   force =     0.00018406   -0.00011139    0.00337057
     atom    3 type  1   force =    -0.00000439    0.00021519    0.00337188
     atom    4 type  1   force =     0.00000398    0.00000242    0.00042651
     atom    5 type  1   force =    -0.00001262    0.00481780   -0.00114309
     atom    6 type  1   force =     0.00001228    0.00000670   -0.00757705
     atom    7 type  1   force =    -0.00416473   -0.00240386   -0.00114835
     atom    8 type  1   force =     0.00416542   -0.00241879   -0.00113997
     atom    9 type  1   force =     0.00000046   -0.00000456   -0.00139971
     atom   10 type  1   force =    -0.00000053    0.00094552    0.00103809
     atom   11 type  1   force =     0.00082311   -0.00047315    0.00104364
     atom   12 type  1   force =    -0.00082845   -0.00047555    0.00105564
     atom   13 type  2   force =     0.00000653    0.00000661   -0.00126429

     Total force =     0.003090     Total SCF correction =     0.000296

     entering subroutine stress ...

     negative rho (up, down):  1.216E-03 0.000E+00
          total   stress  (Ry/bohr**3)                   (kbar)     P=  -17.73
  -0.00012995   0.00000000  -0.00000001        -19.12      0.00     -0.00
   0.00000000  -0.00012995  -0.00000000          0.00    -19.12     -0.00
  -0.00000001  -0.00000000  -0.00010170         -0.00     -0.00    -14.96

     bfgs converged in  10 scf cycles and   9 bfgs steps
     (criteria: energy <  1.0E+00, force <  1.9E-03)

     End of BFGS Geometry Optimization

     Final energy   =   -4891.7519665636 Ry
Begin final coordinates

ATOMIC_POSITIONS (crystal)
Cu1      0.166666667   0.166666667   0.412653782    0   0   0
Cu1      0.666666667   0.166666667   0.412653782    0   0   0
Cu1      0.166666667   0.666666667   0.412653782    0   0   0
Cu1      0.666666667   0.666666667   0.412653782    0   0   0
Cu1      0.833333333   0.333333333   0.500000000    0   0   0
Cu1      0.333333333   0.333333333   0.500000000    0   0   0
Cu1      0.833333333   0.833333333   0.500000000    0   0   0
Cu1      0.333333333   0.833333333   0.500000000    0   0   0
Cu1     -0.000005965   0.000002636   0.583861136
Cu1      0.505962173  -0.011924230   0.588709209
Cu1     -0.011927383   0.505964656   0.588708168
Cu1      0.505963818   0.505965438   0.588710823
O1       0.333329341   0.333332386   0.634610664
End final coordinates

     Writing output data file calc.save

     General routines

     Parallel routines

   This run was terminated on:  13: 4: 5   2May2018

   JOB DONE.
Job  /afs/slac/g/suncat/bin/suncat-tsmpirun -x LD_LIBRARY_PATH -wdir /scratch/qe619699_lkLZO pw.x -npool 4 -in pw.inp

TID   HOST_NAME   COMMAND_LINE            STATUS            TERMINATION_TIME
00000 suncat0026 pw.x -npool 4 -i  Done                     05/02/2018 13:04:05
00001 suncat0026 pw.x -npool 4 -i  Done                     05/02/2018 13:04:05
00002 suncat0026 pw.x -npool 4 -i  Done                     05/02/2018 13:04:05
00003 suncat0026 pw.x -npool 4 -i  Done                     05/02/2018 13:04:05
00004 suncat0026 pw.x -npool 4 -i  Done                     05/02/2018 13:04:05
00005 suncat0026 pw.x -npool 4 -i  Done                     05/02/2018 13:04:05
00006 suncat0026 pw.x -npool 4 -i  Done                     05/02/2018 13:04:05
00007 suncat0026 pw.x -npool 4 -i  Done                     05/02/2018 13:04:05
00008 suncat0015 pw.x -npool 4 -i  Done                     05/02/2018 13:04:05
00009 suncat0015 pw.x -npool 4 -i  Done                     05/02/2018 13:04:05
00010 suncat0015 pw.x -npool 4 -i  Done                     05/02/2018 13:04:05
00011 suncat0015 pw.x -npool 4 -i  Done                     05/02/2018 13:04:05
00012 suncat0015 pw.x -npool 4 -i  Done                     05/02/2018 13:04:05
00013 suncat0015 pw.x -npool 4 -i  Done                     05/02/2018 13:04:05
00014 suncat0015 pw.x -npool 4 -i  Done                     05/02/2018 13:04:05
00015 suncat0015 pw.x -npool 4 -i  Done                     05/02/2018 13:04:05
00016 suncat0276 pw.x -npool 4 -i  Done                     05/02/2018 13:04:05
00017 suncat0276 pw.x -npool 4 -i  Done                     05/02/2018 13:04:05
00018 suncat0276 pw.x -npool 4 -i  Done                     05/02/2018 13:04:05
00019 suncat0276 pw.x -npool 4 -i  Done                     05/02/2018 13:04:05
00020 suncat0276 pw.x -npool 4 -i  Done                     05/02/2018 13:04:05
00021 suncat0276 pw.x -npool 4 -i  Done                     05/02/2018 13:04:05
00022 suncat0276 pw.x -npool 4 -i  Done                     05/02/2018 13:04:05
00023 suncat0276 pw.x -npool 4 -i  Done                     05/02/2018 13:04:05
00024 suncat0270 pw.x -npool 4 -i  Done                     05/02/2018 13:04:05
00025 suncat0270 pw.x -npool 4 -i  Done                     05/02/2018 13:04:05
00026 suncat0270 pw.x -npool 4 -i  Done                     05/02/2018 13:04:05
00027 suncat0270 pw.x -npool 4 -i  Done                     05/02/2018 13:04:05
00028 suncat0270 pw.x -npool 4 -i  Done                     05/02/2018 13:04:05
00029 suncat0270 pw.x -npool 4 -i  Done                     05/02/2018 13:04:05
00030 suncat0270 pw.x -npool 4 -i  Done                     05/02/2018 13:04:05
00031 suncat0270 pw.x -npool 4 -i  Done                     05/02/2018 13:04:05