     Program PWSCF v.5.1rc2 (svn rev. 11289) starts on 28Jan2018 at  5:13:19

     Current dimensions of program PWSCF are:
     Max number of different atomic species (ntypx) = 10
     Max number of k-points (npk) =  40000
     Max angular momentum in pseudopotentials (lmaxx) =  3
     Presently stress not available with electric field

     IMPORTANT: XC functional enforced from input :
     Exchange-correlation      = BEEF-VDW ( 1  4 27 13 2)
     Any further DFT definition will be discarded
     Please, verify this is what you really want

     Subspace diagonalization in iterative solution of the eigenvalue problem:
     a serial algorithm will be used

     bravais-lattice index     =            0
     lattice parameter (alat)  =       1.8897  a.u.
     unit-cell volume          =    7171.5276 (a.u.)^3
     number of atoms/cell      =           13
     number of atomic types    =            2
     number of electrons       =       174.00
     number of Kohn-Sham states=           97
     kinetic-energy cutoff     =      36.7493  Ry
     charge density cutoff     =     367.4932  Ry
     convergence threshold     =      1.0E-05
     mixing beta               =       0.3000
     number of iterations used =           10  plain     mixing
     Exchange-correlation      = BEEF-VDW ( 1  4 27 13 2)
     nstep                     =           50

     celldm(1)=   1.889726  celldm(2)=   0.000000  celldm(3)=   0.000000
     celldm(4)=   0.000000  celldm(5)=   0.000000  celldm(6)=   0.000000

     crystal axes: (cart. coord. in units of alat)
               a(1) = (   6.917003   0.000000   0.000000 )
               a(2) = (   3.458501   5.990300   0.000000 )
               a(3) = (   0.000000   0.000000  25.647709 )

     reciprocal axes: (cart. coord. in units 2 pi/alat)
               b(1) = (  0.144571 -0.083468  0.000000 )
               b(2) = (  0.000000  0.166937  0.000000 )
               b(3) = (  0.000000  0.000000  0.038990 )

     PseudoPot. # 1 for Pb read from file:
     /afs/slac.stanford.edu/u/if/mamunm/psp/gbrv1.5pbe/Pb.UPF
     MD5 check sum: 3d1c1779aa92214d1e8f3a7db79003e2
     Pseudo is Ultrasoft + core correction, Zval = 14.0
     Generated by new atomic code, or converted to UPF format
     Using radial grid of  899 points,  6 beta functions with:
                l(1) =   0
                l(2) =   0
                l(3) =   1
                l(4) =   1
                l(5) =   2
                l(6) =   2
     Q(r) pseudized with  6 coefficients,  rinner =    1.000   1.000   1.000
                                                       1.000   1.000

     PseudoPot. # 2 for S  read from file:
     /afs/slac.stanford.edu/u/if/mamunm/psp/gbrv1.5pbe/S.UPF
     MD5 check sum: 88d86576ff6df21479756cfb9bdac1df
     Pseudo is Ultrasoft + core correction, Zval =  6.0
     Generated by new atomic code, or converted to UPF format
     Using radial grid of  907 points,  6 beta functions with:
                l(1) =   0
                l(2) =   0
                l(3) =   1
                l(4) =   1
                l(5) =   2
                l(6) =   2
     Q(r) pseudized with  8 coefficients,  rinner =    1.300   1.300   1.300
                                                       1.300   1.300

     vdW kernel table read from file vdW_kernel_table
     MD5 check sum: 095c7af220d748ca6e76c0b4c6cfb241

     atomic species   valence    mass     pseudopotential
        Pb1           14.00   207.20000     Pb( 1.00)
        S1             6.00    32.06000     S ( 1.00)

     No symmetry found

   Cartesian axes

     site n.     atom                  positions (alat units)
         1           Pb1 tau(   1) = (   1.7292506   0.9983833  10.0000000  )
         2           Pb1 tau(   2) = (   5.1877519   0.9983833  10.0000000  )
         3           Pb1 tau(   3) = (   3.4585013   3.9935333  10.0000000  )
         4           Pb1 tau(   4) = (   6.9170025   3.9935333  10.0000000  )
         5           Pb1 tau(   5) = (   6.9170025   1.9967666  12.8238544  )
         6           Pb1 tau(   6) = (   3.4585013   1.9967666  12.8238544  )
         7           Pb1 tau(   7) = (   8.6462531   4.9919166  12.8238544  )
         8           Pb1 tau(   8) = (   5.1877519   4.9919166  12.8238544  )
         9           Pb1 tau(   9) = (   0.0000000   0.0000000  15.6477089  )
        10           Pb1 tau(  10) = (   3.4585013   0.0000000  15.6477089  )
        11           Pb1 tau(  11) = (   1.7292506   2.9951499  15.6477089  )
        12           Pb1 tau(  12) = (   5.1877519   2.9951499  15.6477089  )
        13           S1  tau(  13) = (   3.4585013   1.9967666  18.1577089  )

     number of k points=    20  Fermi-Dirac smearing, width (Ry)=  0.0110
                       cart. coord. in units 2pi/alat
        k(    1) = (   0.0000000   0.0000000   0.0000000), wk =   0.0555556
        k(    2) = (   0.0000000   0.0278228   0.0000000), wk =   0.1111111
        k(    3) = (   0.0000000   0.0556455   0.0000000), wk =   0.1111111
        k(    4) = (   0.0000000  -0.0834683   0.0000000), wk =   0.0555556
        k(    5) = (   0.0240952  -0.0139114   0.0000000), wk =   0.1111111
        k(    6) = (   0.0240952   0.0139114   0.0000000), wk =   0.1111111
        k(    7) = (   0.0240952   0.0417341   0.0000000), wk =   0.1111111
        k(    8) = (   0.0240952  -0.0973797   0.0000000), wk =   0.1111111
        k(    9) = (   0.0240952  -0.0695569   0.0000000), wk =   0.1111111
        k(   10) = (   0.0240952  -0.0417341   0.0000000), wk =   0.1111111
        k(   11) = (   0.0481904  -0.0278228   0.0000000), wk =   0.1111111
        k(   12) = (   0.0481904   0.0000000   0.0000000), wk =   0.1111111
        k(   13) = (   0.0481904   0.0278228   0.0000000), wk =   0.1111111
        k(   14) = (   0.0481904  -0.1112910   0.0000000), wk =   0.1111111
        k(   15) = (   0.0481904  -0.0834683   0.0000000), wk =   0.1111111
        k(   16) = (   0.0481904  -0.0556455   0.0000000), wk =   0.1111111
        k(   17) = (  -0.0722856   0.0417341   0.0000000), wk =   0.0555556
        k(   18) = (  -0.0722856   0.0695569   0.0000000), wk =   0.1111111
        k(   19) = (  -0.0722856   0.0973797   0.0000000), wk =   0.1111111
        k(   20) = (  -0.0722856  -0.0417341   0.0000000), wk =   0.0555556

     Largest allocated arrays     est. size (Mb)     dimensions
     Largest temporary arrays     est. size (Mb)     dimensions

     Check: negative/imaginary core charge=   -0.000001    0.000000

     Initial potential from superposition of free atoms
     Check: negative starting charge=   -0.197634

     starting charge  173.97174, renormalised to  174.00000

     negative rho (up, down):  1.977E-01 0.000E+00

     *
     * You are using vdW-DF for exchange-correlation in this calculation.
     * Please cite the following three references that made this development
     * possible:
     *
     *   M. Dion, H. Rydberg, E. Schroder, D. C. Langreth, and
     *   B. I. Lundqvist, Phys. Rev. Lett. 92, 246401 (2004).
     *
     *   T. Thonhauser, V. R. Cooper, S. Li, A. Puzder, P. Hyldgaard, and
     *   D. C. Langreth, Phys. Rev. B 76, 125112 (2007).
     *
     *   G. Roman-Perez and J. M. Soler, Phys. Rev. Lett. 103, 096102 (2009).
     *
     *
     * If you are using vdW-DF2, please also cite:
     *
     *   K. Lee, E. D. Murray, L. Kong, B. I. Lundqvist, and
     *   D. C. Langreth, Phys. Rev. B 82, 081101(R) (2010).
     *
     *
     * If you are calculating the stress with vdW-DF, please also cite:
     *
     *   R. Sabatini, E. Kucukbenli, B. Kolb, T. Thonhauser, and
     *   S. de Gironcoli, J. Phys.: Condens. Matter 24, 424209 (2012).
     *

     Carrying out vdW-DF run using the following parameters:

     Nqs =      20    Nr_points =    1024   r_max =   100.000
     q_mesh =
               0.00001000     0.04494208     0.09755937     0.15916263
               0.23128650     0.31572767     0.41458969     0.53033537
               0.66584808     0.82450364     1.01025438     1.22772762
               1.48234092     1.78043706     2.12944203     2.53805004
               3.01644009     3.57652955     4.23227104     5.00000000

     Gradients computed in reciprocal space

     Adding external electric field

     Computed dipole along edir(3) :
        Dipole               -0.0094 Ry au,         -0.0240 Debye
        Dipole field         -0.0000 Ry au

        Potential amp.        0.0016 Ry
        Total length         47.2555 bohr

     Starting wfc are  112 randomized atomic wfcs

     Self-consistent Calculation

     iteration #  1     ecut=    36.75 Ry     beta=0.30
     Davidson diagonalization with overlap
     ethr =  1.00E-02,  avg # of iterations =  2.0

     Threshold (ethr) on eigenvalues was too large:
     Diagonalizing with lowered threshold

     Davidson diagonalization with overlap
     ethr =  7.99E-04,  avg # of iterations =  1.9

[...]

     total energy              =   -2016.07319625 Ry
     Harris-Foulkes estimate   =   -2016.69861088 Ry
     estimated scf accuracy    <       1.37171180 Ry

[...]

     End of self-consistent calculation

          k = 0.0000 0.0000 0.0000 ( 27033 PWs)   bands (ev):

   -16.9589 -16.9589 -16.9583 -16.9117 -16.9117 -16.9115 -16.8726 -16.8726
   -16.8690 -16.8606 -16.8470 -16.8430 -16.8430 -16.8331 -16.8144 -16.8144
   -16.8100 -16.8090 -16.8090 -16.7956 -16.7956 -16.7952 -16.7952 -16.7944
   -16.7805 -16.7805 -16.7731 -16.7654 -16.7546 -16.7546 -16.6926 -16.6926
   -16.6759 -16.6671 -16.6671 -16.6415 -16.6415 -16.6398 -16.6316 -16.6316
   -16.5747 -16.5714 -16.5714 -16.5701 -16.5657 -16.5657 -16.5476 -16.5474
   -16.5474 -16.5421 -16.5421 -16.5333 -16.5333 -16.5234 -16.5234 -16.5217
   -16.5134 -16.5072 -16.4912 -16.4912 -10.9512 -10.2915  -9.6069  -8.2072
    -7.3778  -7.3778  -7.3534  -6.9201  -6.9201  -6.9163  -6.2947  -6.2947
    -6.2887  -3.1083  -3.0750  -3.0750  -2.5257  -2.0805  -2.0805  -2.0461
    -1.9960  -1.8953  -1.8953  -0.2285  -0.1244  -0.1244   0.7411   1.8187
     1.8187   1.8641   2.2583   2.2583   2.3588   3.1732   3.2308   3.2404
     3.2404

[...]

          k =-0.0723 0.0417 0.0000 ( 26962 PWs)   bands (ev):

[...]

     the Fermi energy is     0.6939 ev

!    total energy              =   -2016.60110941 Ry
     Harris-Foulkes estimate   =   -2016.60107903 Ry
     estimated scf accuracy    <       0.00000261 Ry

     The total energy is the sum of the following terms:

     one-electron contribution =   -9500.95506233 Ry
     hartree contribution      =    4819.79593284 Ry
     xc contribution           =    -792.47699819 Ry
     ewald contribution        =    3457.07778736 Ry
     electric field correction =       0.00149263 Ry
     smearing contrib. (-TS)   =      -0.04426173 Ry

     convergence has been achieved in  12 iterations

 BEEF-vdW xc energy contributions
           1 :   -706.093974268506
           2 :    655.473425050598
           3 :   -566.450491879467
           4 :    458.621603296508
           5 :   -352.103822899401
           6 :    261.563701226791
           7 :   -193.080833951762
           8 :    144.577092691842
           9 :   -109.124896145819
          10 :    79.3481879309195
[...]

[...]

     Program PWSCF v.5.1rc2 (svn rev. 11289) starts on 28Jan2018 at  7: 8:54

[...]

   This run was terminated on:   7:34: 8  28Jan2018

[...]

     Program PWSCF v.5.1rc2 (svn rev. 11289) starts on 28Jan2018 at  7:34:14

[...]

     Program PWSCF v.5.1rc2 (svn rev. 11289) starts on 28Jan2018 at  7:47: 1

     Current dimensions of program PWSCF are:
     Max number of different atomic species (ntypx) = 10
     Max number of k-points (npk) =  40000
     Max angular momentum in pseudopotentials (lmaxx) =  3
     Presently stress not available with electric field

     IMPORTANT: XC functional enforced from input :
     Exchange-correlation      = BEEF-VDW ( 1  4 27 13 2)
     Any further DFT definition will be discarded
     Please, verify this is what you really want

     Subspace diagonalization in iterative solution of the eigenvalue problem:
     a serial algorithm will be used

     bravais-lattice index     =            0
     lattice parameter (alat)  =       1.8897  a.u.
     unit-cell volume          =    7171.5276 (a.u.)^3
     number of atoms/cell      =           13
     number of atomic types    =            2
     number of electrons       =       174.00
     number of Kohn-Sham states=           97
     kinetic-energy cutoff     =      36.7493  Ry
     charge density cutoff     =     367.4932  Ry
     convergence threshold     =      1.0E-05
     mixing beta               =       0.3000
     number of iterations used =           10  plain     mixing
     Exchange-correlation      = BEEF-VDW ( 1  4 27 13 2)
     nstep                     =           50

     celldm(1)=   1.889726  celldm(2)=   0.000000  celldm(3)=   0.000000
     celldm(4)=   0.000000  celldm(5)=   0.000000  celldm(6)=   0.000000

     crystal axes: (cart. coord. in units of alat)
               a(1) = (   6.917003   0.000000   0.000000 )
               a(2) = (   3.458501   5.990300   0.000000 )
               a(3) = (   0.000000   0.000000  25.647709 )

     reciprocal axes: (cart. coord. in units 2 pi/alat)
               b(1) = (  0.144571 -0.083468  0.000000 )
               b(2) = (  0.000000  0.166937  0.000000 )
               b(3) = (  0.000000  0.000000  0.038990 )

     PseudoPot. # 1 for Pb read from file:
     /afs/slac.stanford.edu/u/if/mamunm/psp/gbrv1.5pbe/Pb.UPF
     MD5 check sum: 3d1c1779aa92214d1e8f3a7db79003e2
     Pseudo is Ultrasoft + core correction, Zval = 14.0
     Generated by new atomic code, or converted to UPF format
     Using radial grid of  899 points,  6 beta functions with:
                l(1) =   0
                l(2) =   0
                l(3) =   1
                l(4) =   1
                l(5) =   2
                l(6) =   2
     Q(r) pseudized with  6 coefficients,  rinner =    1.000   1.000   1.000
                                                       1.000   1.000

     PseudoPot. # 2 for S  read from file:
     /afs/slac.stanford.edu/u/if/mamunm/psp/gbrv1.5pbe/S.UPF
     MD5 check sum: 88d86576ff6df21479756cfb9bdac1df
     Pseudo is Ultrasoft + core correction, Zval =  6.0
     Generated by new atomic code, or converted to UPF format
     Using radial grid of  907 points,  6 beta functions with:
                l(1) =   0
                l(2) =   0
                l(3) =   1
                l(4) =   1
                l(5) =   2
                l(6) =   2
     Q(r) pseudized with  8 coefficients,  rinner =    1.300   1.300   1.300
                                                       1.300   1.300

     vdW kernel table read from file vdW_kernel_table
     MD5 check sum: 095c7af220d748ca6e76c0b4c6cfb241

     atomic species   valence    mass     pseudopotential
        Pb1           14.00   207.20000     Pb( 1.00)
        S1             6.00    32.06000     S ( 1.00)

     No symmetry found

   Cartesian axes

     site n.     atom                  positions (alat units)
         1           Pb1 tau(   1) = (   1.7292506   0.9983833  10.0000000  )
         2           Pb1 tau(   2) = (   5.1877519   0.9983833  10.0000000  )
         3           Pb1 tau(   3) = (   3.4585013   3.9935333  10.0000000  )
         4           Pb1 tau(   4) = (   6.9170025   3.9935333  10.0000000  )
         5           Pb1 tau(   5) = (   6.9170025   1.9967666  12.8238544  )
         6           Pb1 tau(   6) = (   3.4585013   1.9967666  12.8238544  )
         7           Pb1 tau(   7) = (   8.6462531   4.9919166  12.8238544  )
         8           Pb1 tau(   8) = (   5.1877519   4.9919166  12.8238544  )
         9           Pb1 tau(   9) = (   6.9169870   0.0001923  15.6486052  )
        10           Pb1 tau(  10) = (   3.4584601   0.0520041  16.2253786  )
        11           Pb1 tau(  11) = (   1.7741515   2.9690989  16.2254343  )
        12           Pb1 tau(  12) = (   5.1426405   2.9691316  16.2255968  )
        13           S1  tau(  13) = (   3.4584365   1.9967684  18.1536163  )

     number of k points=    20  Fermi-Dirac smearing, width (Ry)=  0.0110
                       cart. coord. in units 2pi/alat
        k(    1) = (   0.0000000   0.0000000   0.0000000), wk =   0.0555556
        k(    2) = (   0.0000000   0.0278228   0.0000000), wk =   0.1111111
        k(    3) = (   0.0000000   0.0556455   0.0000000), wk =   0.1111111
        k(    4) = (   0.0000000  -0.0834683   0.0000000), wk =   0.0555556
        k(    5) = (   0.0240952  -0.0139114   0.0000000), wk =   0.1111111
        k(    6) = (   0.0240952   0.0139114   0.0000000), wk =   0.1111111
        k(    7) = (   0.0240952   0.0417341   0.0000000), wk =   0.1111111
        k(    8) = (   0.0240952  -0.0973797   0.0000000), wk =   0.1111111
        k(    9) = (   0.0240952  -0.0695569   0.0000000), wk =   0.1111111
        k(   10) = (   0.0240952  -0.0417341   0.0000000), wk =   0.1111111
        k(   11) = (   0.0481904  -0.0278228   0.0000000), wk =   0.1111111
        k(   12) = (   0.0481904   0.0000000   0.0000000), wk =   0.1111111
        k(   13) = (   0.0481904   0.0278228   0.0000000), wk =   0.1111111
        k(   14) = (   0.0481904  -0.1112910   0.0000000), wk =   0.1111111
        k(   15) = (   0.0481904  -0.0834683   0.0000000), wk =   0.1111111
        k(   16) = (   0.0481904  -0.0556455   0.0000000), wk =   0.1111111
        k(   17) = (  -0.0722856   0.0417341   0.0000000), wk =   0.0555556
        k(   18) = (  -0.0722856   0.0695569   0.0000000), wk =   0.1111111
        k(   19) = (  -0.0722856   0.0973797   0.0000000), wk =   0.1111111
        k(   20) = (  -0.0722856  -0.0417341   0.0000000), wk =   0.0555556

     Largest allocated arrays     est. size (Mb)     dimensions
     Largest temporary arrays     est. size (Mb)     dimensions

     Check: negative/imaginary core charge=   -0.000001    0.000000

     Initial potential from superposition of free atoms
     Check: negative starting charge=   -0.197954

     starting charge  173.97174, renormalised to  174.00000

[...]

     *
     * You are using vdW-DF for exchange-correlation in this calculation.
     * Please cite the following three references that made this development
     * possible:
     *
     *   M. Dion, H. Rydberg, E. Schroder, D. C. Langreth, and
     *   B. I. Lundqvist, Phys. Rev. Lett. 92, 246401 (2004).
     *
     *   T. Thonhauser, V. R. Cooper, S. Li, A. Puzder, P. Hyldgaard, and
     *   D. C. Langreth, Phys. Rev. B 76, 125112 (2007).
     *
     *   G. Roman-Perez and J. M. Soler, Phys. Rev. Lett. 103, 096102 (2009).
     *
     *
     * If you are using vdW-DF2, please also cite:
     *
     *   K. Lee, E. D. Murray, L. Kong, B. I. Lundqvist, and
     *   D. C. Langreth, Phys. Rev. B 82, 081101(R) (2010).
     *
     *
     * If you are calculating the stress with vdW-DF, please also cite:
     *
     *   R. Sabatini, E. Kucukbenli, B. Kolb, T. Thonhauser, and
     *   S. de Gironcoli, J. Phys.: Condens. Matter 24, 424209 (2012).
     *

     Carrying out vdW-DF run using the following parameters:

     Nqs =      20    Nr_points =    1024   r_max =   100.000
     q_mesh =
               0.00001000     0.04494208     0.09755937     0.15916263
               0.23128650     0.31572767     0.41458969     0.53033537
               0.66584808     0.82450364     1.01025438     1.22772762
               1.48234092     1.78043706     2.12944203     2.53805004
               3.01644009     3.57652955     4.23227104     5.00000000

     Gradients computed in reciprocal space

[...]

     Starting wfc are  112 randomized atomic wfcs

     Self-consistent Calculation

[...]

     Threshold (ethr) on eigenvalues was too large:
     Diagonalizing with lowered threshold

     Davidson diagonalization with overlap
     ethr =  2.56E-04,  avg # of iterations =  2.0

[...]

     total energy              =   -2016.68061308 Ry
     Harris-Foulkes estimate   =   -2016.68062229 Ry
     estimated scf accuracy    <       0.00001096 Ry

     iteration # 10     ecut=    36.75 Ry     beta=0.30
     Davidson diagonalization with overlap
     ethr =  6.30E-09,  avg # of iterations =  5.0

[...]

     negative rho (up, down):  2.141E-01 0.000E+00

     Adding external electric field

     Computed dipole along edir(3) :
        Dipole               -0.4878 Ry au,         -1.2397 Debye
        Dipole field         -0.0009 Ry au

        Potential amp.        0.0808 Ry
        Total length         47.2555 bohr

     End of self-consistent calculation

[...]

          k = 0.0482-0.0556 0.0000 ( 26956 PWs)   bands (ev):

[...]

          k =-0.0723-0.0417 0.0000 ( 26962 PWs)   bands (ev):

   -16.5303 -16.5278 -16.5113 -16.4889 -16.4674 -16.4612 -16.4606 -16.4579
   -16.4536 -16.4454 -16.4351 -16.4316 -16.4253 -16.4218 -16.4143 -16.4118
   -16.4074 -16.3991 -16.3955 -16.3898 -16.3883 -16.3834 -16.3815 -16.3709
   -16.3697 -16.3646 -16.3636 -16.3534 -16.3513 -16.3448 -16.3427 -16.3420
   -16.3245 -16.3194 -16.3168 -16.3107 -16.3094 -16.3069 -16.3038 -16.3002
   -16.2857 -16.2730 -16.2721 -16.2699 -16.2635 -16.2578 -16.2565 -16.2517
   -16.2489 -16.2391 -16.2286 -16.2262 -16.2257 -16.2168 -16.2087 -16.2070
   -16.1920 -16.1866 -16.1577 -16.1464 -11.4825  -9.2697  -9.1684  -8.2447
    -7.9333  -7.2855  -7.2673  -7.2408  -7.1338  -6.6882  -6.5084  -5.9948
    -5.8706  -2.0761  -1.4632  -1.3751  -0.9674  -0.8844  -0.8363  -0.6563
    -0.6400  -0.5280  -0.1452   0.3309   0.5680   0.8713   0.9704   1.3001
     1.6372   1.8467   1.8879   2.0199   2.2455   2.3251   2.3424   2.4367
     2.6504

     the Fermi energy is     1.0565 ev

!    total energy              =   -2016.68060528 Ry
     Harris-Foulkes estimate   =   -2016.68065513 Ry
     estimated scf accuracy    <       0.00000350 Ry

     The total energy is the sum of the following terms:

     one-electron contribution =   -8971.76281771 Ry
     hartree contribution      =    4556.91487941 Ry
     xc contribution           =    -792.46077986 Ry
     ewald contribution        =    3190.66693886 Ry
     electric field correction =       0.00041687 Ry
     smearing contrib. (-TS)   =      -0.03924286 Ry

     convergence has been achieved in  10 iterations

 BEEF-vdW xc energy contributions
           1 :   -706.069047254888
           2 :    655.368505097002
           3 :   -566.236762871330
           4 :    458.359882664207
           5 :   -351.923444073605
           6 :    261.572377858817
           7 :   -193.269915046213
           8 :    144.801330367643
           9 :   -109.182116885830
          10 :    79.1096781379333
          11 :   -50.3845888676786
          12 :    22.9757734103227
          13 :   0.282203736467523
          14 :   -16.2340198516415
          15 :    23.6455662977719
          16 :   -24.0268975842373
          17 :    20.8255470418760
          18 :   -17.6530907554886
          19 :    16.6212853332996
          20 :   -17.6687629067978
          21 :    19.1188454861158
          22 :   -19.0205643180948
          23 :    16.4463540561242
          24 :   -12.0345692447012
          25 :    7.55531053979530
          26 :   -4.84394019300089
          27 :    4.76315812098005
          28 :   -6.77817718620520
          29 :    9.33720505635642
          30 :   -10.7880761356942
          31 :   -56.7243453344752
          32 :   -41.5044109642558

     Forces acting on atoms (Ry/au):

     negative rho (up, down):  2.141E-01 0.000E+00
     atom    1 type  1   force =    -0.00065955   -0.00039392   -0.00290300
     atom    2 type  1   force =     0.00065835   -0.00040047   -0.00291620
     atom    3 type  1   force =    -0.00001047    0.00079580   -0.00290625
     atom    4 type  1   force =    -0.00000684    0.00000644   -0.00262049
     atom    5 type  1   force =     0.00000951    0.00262300   -0.00022184
     atom    6 type  1   force =     0.00000643    0.00000454    0.01100411
     atom    7 type  1   force =    -0.00227791   -0.00131746   -0.00022626
     atom    8 type  1   force =     0.00228657   -0.00132316   -0.00022336
     atom    9 type  1   force =    -0.00000592   -0.00000254    0.00065031
     atom   10 type  1   force =     0.00000115   -0.00024563    0.00006276
     atom   11 type  1   force =    -0.00020223    0.00012169    0.00007245
     atom   12 type  1   force =     0.00021253    0.00013731    0.00006397
     atom   13 type  2   force =    -0.00001163   -0.00000560    0.00016381

     Total force =     0.013294     Total SCF correction =     0.014337
     SCF correction compared to forces is large: reduce conv_thr to get better values

     entering subroutine stress ...

     negative rho (up, down):  2.141E-01 0.000E+00
          total   stress  (Ry/bohr**3)                   (kbar)     P=    7.07
   0.00006388   0.00000000  -0.00000000          9.40      0.00     -0.00
   0.00000000   0.00006387  -0.00000000          0.00      9.40     -0.00
  -0.00000000  -0.00000000   0.00001648         -0.00     -0.00      2.42

 !ASE

     Writing output data file calc.save

     General routines

     Parallel routines

   This run was terminated on:   7:59:40  28Jan2018

   JOB DONE.
Job  /afs/slac/g/suncat/bin/suncat-tsmpirun -x LD_LIBRARY_PATH -wdir /scratch/qe498627_XSHtV pw.x -in pw.inp

TID   HOST_NAME   COMMAND_LINE            STATUS            TERMINATION_TIME
00000 suncat0085 pw.x -in pw.inp   Done                     01/28/2018 07:59:40
00001 suncat0085 pw.x -in pw.inp   Done                     01/28/2018 07:59:40
00002 suncat0085 pw.x -in pw.inp   Done                     01/28/2018 07:59:40
00003 suncat0085 pw.x -in pw.inp   Done                     01/28/2018 07:59:40
00004 suncat0085 pw.x -in pw.inp   Done                     01/28/2018 07:59:40
00005 suncat0085 pw.x -in pw.inp   Done                     01/28/2018 07:59:40
00006 suncat0085 pw.x -in pw.inp   Done                     01/28/2018 07:59:40
00007 suncat0085 pw.x -in pw.inp   Done                     01/28/2018 07:59:40
00008 suncat0075 pw.x -in pw.inp   Done                     01/28/2018 07:59:40
00009 suncat0075 pw.x -in pw.inp   Done                     01/28/2018 07:59:40
00010 suncat0075 pw.x -in pw.inp   Done                     01/28/2018 07:59:40
00011 suncat0075 pw.x -in pw.inp   Done                     01/28/2018 07:59:40
00012 suncat0075 pw.x -in pw.inp   Done                     01/28/2018 07:59:40
00013 suncat0075 pw.x -in pw.inp   Done                     01/28/2018 07:59:40
00014 suncat0075 pw.x -in pw.inp   Done                     01/28/2018 07:59:40
00015 suncat0075 pw.x -in pw.inp   Done                     01/28/2018 07:59:40
00016 suncat0129 pw.x -in pw.inp   Done                     01/28/2018 07:59:40
00017 suncat0129 pw.x -in pw.inp   Done                     01/28/2018 07:59:40
00018 suncat0129 pw.x -in pw.inp   Done                     01/28/2018 07:59:40
00019 suncat0129 pw.x -in pw.inp   Done                     01/28/2018 07:59:40
00020 suncat0129 pw.x -in pw.inp   Done                     01/28/2018 07:59:40
00021 suncat0129 pw.x -in pw.inp   Done                     01/28/2018 07:59:40
00022 suncat0129 pw.x -in pw.inp   Done                     01/28/2018 07:59:40
00023 suncat0129 pw.x -in pw.inp   Done                     01/28/2018 07:59:40
00024 suncat0255 pw.x -in pw.inp   Done                     01/28/2018 07:59:40
00025 suncat0255 pw.x -in pw.inp   Done                     01/28/2018 07:59:40
00026 suncat0255 pw.x -in pw.inp   Done                     01/28/2018 07:59:40
00027 suncat0255 pw.x -in pw.inp   Done                     01/28/2018 07:59:40
00028 suncat0255 pw.x -in pw.inp   Done                     01/28/2018 07:59:40
00029 suncat0255 pw.x -in pw.inp   Done                     01/28/2018 07:59:40
00030 suncat0255 pw.x -in pw.inp   Done                     01/28/2018 07:59:40
00031 suncat0255 pw.x -in pw.inp   Done                     01/28/2018 07:59:40