     Program PWSCF v.5.1rc2 (svn rev. 11289) starts on 23Apr2018 at  0:25:17

     Current dimensions of program PWSCF are:
     Max number of different atomic species (ntypx) = 10
     Max number of k-points (npk) =  40000
     Max angular momentum in pseudopotentials (lmaxx) =  3
     Presently stress not available with electric field

     IMPORTANT: XC functional enforced from input :
     Exchange-correlation      = BEEF-VDW ( 1  4 27 13 2)
     Any further DFT definition will be discarded
     Please, verify this is what you really want

     Subspace diagonalization in iterative solution of the eigenvalue problem:
     a serial algorithm will be used

     bravais-lattice index     =            0
     lattice parameter (alat)  =       1.8897  a.u.
     unit-cell volume          =    6116.8020 (a.u.)^3
     number of atoms/cell      =           16
     number of atomic types    =            3
     number of electrons       =       139.00
     number of Kohn-Sham states=           79
     kinetic-energy cutoff     =      36.7493  Ry
     charge density cutoff     =     367.4932  Ry
     convergence threshold     =      1.0E-05
     mixing beta               =       0.3000
     number of iterations used =           10  plain     mixing
     Exchange-correlation      = BEEF-VDW ( 1  4 27 13 2)
     nstep                     =           50

     celldm(1)=   1.889726  celldm(2)=   0.000000  celldm(3)=   0.000000
     celldm(4)=   0.000000  celldm(5)=   0.000000  celldm(6)=   0.000000

     crystal axes: (cart. coord. in units of alat)
               a(1) = (   6.437465   0.000000   0.000000 )
               a(2) = (   3.218732   5.575008   0.000000 )
               a(3) = (   0.000000   0.000000  25.256168 )

     reciprocal axes: (cart. coord. in units 2 pi/alat)
               b(1) = (  0.155341 -0.089686  0.000000 )
               b(2) = (  0.000000  0.179372  0.000000 )
               b(3) = (  0.000000  0.000000  0.039594 )

     PseudoPot. # 1 for Sc read from file:
     /u/if/mamunm/psp/gbrv1.5pbe/Sc.UPF
     MD5 check sum: db30a2753ba66ef00f23801d899b7e7f
     Pseudo is Ultrasoft + core correction, Zval = 11.0
     Generated by new atomic code, or converted to UPF format
     Using radial grid of  849 points,  6 beta functions with:
                l(1) =   0
                l(2) =   0
                l(3) =   1
                l(4) =   1
                l(5) =   2
                l(6) =   2
     Q(r) pseudized with  6 coefficients,  rinner =    1.200   1.200   1.200
                                                       1.200   1.200

     PseudoPot. # 2 for C  read from file:
     /u/if/mamunm/psp/gbrv1.5pbe/C.UPF
     MD5 check sum: d1aef80898a10debaa0f26306b886e00
     Pseudo is Ultrasoft + core correction, Zval =  4.0
     Generated by new atomic code, or converted to UPF format
     Using radial grid of  721 points,  4 beta functions with:
                l(1) =   0
                l(2) =   0
                l(3) =   1
                l(4) =   1
     Q(r) pseudized with  8 coefficients,  rinner =    1.100   1.100   1.100

     PseudoPot. # 3 for H  read from file:
     /u/if/mamunm/psp/gbrv1.5pbe/H.UPF
     MD5 check sum: 761ae9a214b05c3daf00ab9f6b793d6f
     Pseudo is Ultrasoft, Zval =  1.0
     Generated by new atomic code, or converted to UPF format
     Using radial grid of  615 points,  2 beta functions with:
                l(1) =   0
                l(2) =   0
     Q(r) pseudized with  8 coefficients,  rinner =    0.700

     vdW kernel table read from file vdW_kernel_table
     MD5 check sum: 095c7af220d748ca6e76c0b4c6cfb241

     atomic species   valence    mass     pseudopotential
        Sc1           11.00    44.95591     Sc( 1.00)
        C1             4.00    12.01100     C ( 1.00)
        H1             1.00     1.00800     H ( 1.00)

     No symmetry found

   Cartesian axes

     site n.     atom                  positions (alat units)
         1           Sc1 tau(   1) = (   1.6093662   0.9291680  10.0000000  )
         2           Sc1 tau(   2) = (   4.8280986   0.9291680  10.0000000  )
         3           Sc1 tau(   3) = (   3.2187324   3.7166720  10.0000000  )
         4           Sc1 tau(   4) = (   6.4374648   3.7166720  10.0000000  )
         5           Sc1 tau(   5) = (   6.4374648   1.8583360  12.6280840  )
         6           Sc1 tau(   6) = (   3.2187324   1.8583360  12.6280840  )
         7           Sc1 tau(   7) = (   8.0468310   4.6458400  12.6280840  )
         8           Sc1 tau(   8) = (   4.8280986   4.6458400  12.6280840  )
         9           Sc1 tau(   9) = (   0.0000000   0.0000000  15.2561680  )
        10           Sc1 tau(  10) = (   3.2187324   0.0000000  15.2561680  )
        11           Sc1 tau(  11) = (   1.6093662   2.7875040  15.2561680  )
        12           Sc1 tau(  12) = (   4.8280986   2.7875040  15.2561680  )
        13           C1  tau(  13) = (   1.6093662   0.9291680  16.8551680  )
        14           H1  tau(  14) = (   2.6993662   0.9291680  17.4851680  )
        15           H1  tau(  15) = (   1.1593662   1.8186680  17.4851680  )
        16           H1  tau(  16) = (   1.1593662   0.0396680  17.4851680  )

     number of k points=    20  Fermi-Dirac smearing, width (Ry)=  0.0110
                       cart. coord. in units 2pi/alat
        k(    1) = (   0.0000000   0.0000000   0.0000000), wk =   0.0555556
        k(    2) = (   0.0000000   0.0298953   0.0000000), wk =   0.1111111
        k(    3) = (   0.0000000   0.0597906   0.0000000), wk =   0.1111111
        k(    4) = (   0.0000000  -0.0896860   0.0000000), wk =   0.0555556
        k(    5) = (   0.0258901  -0.0149477   0.0000000), wk =   0.1111111
        k(    6) = (   0.0258901   0.0149477   0.0000000), wk =   0.1111111
        k(    7) = (   0.0258901   0.0448430   0.0000000), wk =   0.1111111
        k(    8) = (   0.0258901  -0.1046336   0.0000000), wk =   0.1111111
        k(    9) = (   0.0258901  -0.0747383   0.0000000), wk =   0.1111111
        k(   10) = (   0.0258901  -0.0448430   0.0000000), wk =   0.1111111
        k(   11) = (   0.0517802  -0.0298953   0.0000000), wk =   0.1111111
        k(   12) = (   0.0517802   0.0000000   0.0000000), wk =   0.1111111
        k(   13) = (   0.0517802   0.0298953   0.0000000), wk =   0.1111111
        k(   14) = (   0.0517802  -0.1195813   0.0000000), wk =   0.1111111
        k(   15) = (   0.0517802  -0.0896860   0.0000000), wk =   0.1111111
        k(   16) = (   0.0517802  -0.0597906   0.0000000), wk =   0.1111111
        k(   17) = (  -0.0776703   0.0448430   0.0000000), wk =   0.0555556
        k(   18) = (  -0.0776703   0.0747383   0.0000000), wk =   0.1111111
        k(   19) = (  -0.0776703   0.1046336   0.0000000), wk =   0.1111111
        k(   20) = (  -0.0776703  -0.0448430   0.0000000), wk =   0.0555556

     Largest allocated arrays     est. size (Mb)     dimensions
     Largest temporary arrays     est. size (Mb)     dimensions

     Initial potential from superposition of free atoms
     Check: negative starting charge=   -0.000263

     starting charge  138.97110, renormalised to  139.00000

     negative rho (up, down):  2.632E-04 0.000E+00

     *
     * You are using vdW-DF for exchange-correlation in this calculation.
     * Please cite the following three references that made this development
     * possible:
     *
     *   M. Dion, H. Rydberg, E. Schroder, D. C. Langreth, and
     *   B. I. Lundqvist, Phys. Rev. Lett. 92, 246401 (2004).
     *
     *   T. Thonhauser, V. R. Cooper, S. Li, A. Puzder, P. Hyldgaard, and
     *   D. C. Langreth, Phys. Rev. B 76, 125112 (2007).
     *
     *   G. Roman-Perez and J. M. Soler, Phys. Rev. Lett. 103, 096102 (2009).
     *
     *
     * If you are using vdW-DF2, please also cite:
     *
     *   K. Lee, E. D. Murray, L. Kong, B. I. Lundqvist, and
     *   D. C. Langreth, Phys. Rev. B 82, 081101(R) (2010).
     *
     *
     * If you are calculating the stress with vdW-DF, please also cite:
     *
     *   R. Sabatini, E. Kucukbenli, B. Kolb, T. Thonhauser, and
     *   S. de Gironcoli, J. Phys.: Condens. Matter 24, 424209 (2012).
     *

     Carrying out vdW-DF run using the following parameters:

     Nqs =      20    Nr_points =    1024   r_max =   100.000
     q_mesh =
               0.00001000     0.04494208     0.09755937     0.15916263
               0.23128650     0.31572767     0.41458969     0.53033537
               0.66584808     0.82450364     1.01025438     1.22772762
               1.48234092     1.78043706     2.12944203     2.53805004
               3.01644009     3.57652955     4.23227104     5.00000000

     Gradients computed in reciprocal space

     Adding external electric field

     Computed dipole along edir(3) :
        Dipole               -0.0118 Ry au,         -0.0300 Debye
        Dipole field         -0.0000 Ry au

        Potential amp.        0.0023 Ry
        Total length         46.5341 bohr

     Starting wfc are  163 randomized atomic wfcs

     Self-consistent Calculation

     iteration #  1     ecut=    36.75 Ry     beta=0.30
     Davidson diagonalization with overlap
     ethr =  1.00E-02,  avg # of iterations =  2.0

[...]

     total energy              =   -1150.29474492 Ry
     Harris-Foulkes estimate   =   -1153.57554027 Ry
     estimated scf accuracy    <       6.98319210 Ry

[...]

     End of self-consistent calculation

          k = 0.0000 0.0000 0.0000 ( 23031 PWs)   bands (ev):

   -49.1156 -49.0939 -49.0704 -49.0698 -49.0687 -49.0525 -49.0338 -49.0282
   -48.6593 -48.6200 -48.6192 -48.5925 -27.8309 -27.8281 -27.8279 -27.8191
   -27.7973 -27.7941 -27.7926 -27.7840 -27.7509 -27.7429 -27.7411 -27.7294
   -27.7120 -27.7041 -27.5695 -27.5693 -27.5674 -27.5374 -27.5344 -27.5259
   -27.4901 -27.4900 -27.4521 -27.4516 -27.3867 -27.3772 -27.3770 -27.2193
   -27.1990 -27.1977 -27.1671 -27.1488 -27.1390 -27.1385 -27.0642 -27.0640
   -12.8854  -5.9462  -5.5197  -4.1393  -3.5522  -2.5079  -1.4215  -0.6552
    -0.6543  -0.6175  -0.5087  -0.5067  -0.4988  -0.2171  -0.2128  -0.1082
     0.2708   0.2715   0.3290   0.5448   0.5503   0.7565   0.9279   1.0310
     1.3198   1.3670   1.3787   1.4643   1.4673   1.4685   1.9035

[...]

          k =-0.0777 0.0448 0.0000 ( 23032 PWs)   bands (ev):

[...]

     the Fermi energy is     0.8335 ev

!    total energy              =   -1152.89682367 Ry
     Harris-Foulkes estimate   =   -1152.89683134 Ry
     estimated scf accuracy    <       0.00000257 Ry

     The total energy is the sum of the following terms:

     one-electron contribution =   -7406.63245350 Ry
     hartree contribution      =    3688.79411173 Ry
     xc contribution           =    -172.34294541 Ry
     ewald contribution        =    2737.42316660 Ry
     electric field correction =       0.00006555 Ry
     smearing contrib. (-TS)   =      -0.13876863 Ry

     convergence has been achieved in  19 iterations

 BEEF-vdW xc energy contributions
           1 :   -145.951105443131
           2 :    128.371047481981
           3 :   -100.989517423420
           4 :    74.3952602382193
           5 :   -56.0034850842061
           6 :    47.0908655197912
           7 :   -44.0840686824918
           8 :    42.3020554890577
           9 :   -39.1619969152756
          10 :    34.9381415015000
          11 :   -31.3063215911127
          12 :    29.3549187069513
          13 :   -28.6809163663921
          14 :    27.9917321953566
          15 :   -26.3841121169064
          16 :    24.0845071822212
          17 :   -22.0881469071807
          18 :    21.1555606450104
          19 :   -21.1305883430198
          20 :    21.1504749403729
          21 :   -20.4662496506369
          22 :    19.0779871954434
          23 :   -17.6440109426213
          24 :    16.8247051042668
          25 :   -16.7012014226687
          26 :    16.7691440482498
          27 :   -16.4488366070526
          28 :    15.6065905708174
          29 :   -14.6263379384915
          30 :    14.0114781421011
          31 :   -17.3449700717168
          32 :   -12.4268901713940

     Forces acting on atoms (Ry/au):

     negative rho (up, down):  1.675E-04 0.000E+00
     atom    1 type  1   force =    -0.00001275   -0.00000333    0.00101720
     atom    2 type  1   force =    -0.00001130   -0.00070007    0.00135754
     atom    3 type  1   force =    -0.00058823    0.00034992    0.00133494
     atom    4 type  1   force =     0.00059116    0.00033152    0.00135147
     atom    5 type  1   force =    -0.00079360    0.00099371    0.00173551
     atom    6 type  1   force =     0.00113949    0.00033287    0.00188545
     atom    7 type  1   force =     0.00003010   -0.00010421   -0.00881404
     atom    8 type  1   force =    -0.00044016   -0.00122723    0.00174522
     atom    9 type  1   force =     0.00981919    0.00338586    0.00017396
     atom   10 type  1   force =    -0.00897755    0.00774171    0.00234108
     atom   11 type  1   force =    -0.00191569   -0.01193606    0.00101224
     atom   12 type  1   force =     0.00040825   -0.00052959   -0.01598102
     atom   13 type  2   force =     0.04569156    0.00151984    0.16091084
     atom   14 type  3   force =    -0.07398333   -0.00239887   -0.06409540
     atom   15 type  3   force =     0.01674798   -0.04023371   -0.04246975
     atom   16 type  3   force =     0.01229488    0.04247765   -0.04350523

     Total force =     0.213958     Total SCF correction =     0.001964

     entering subroutine stress ...

     negative rho (up, down):  1.675E-04 0.000E+00
          total   stress  (Ry/bohr**3)                   (kbar)     P=   -2.32
  -0.00000832   0.00000055  -0.00000830         -1.22      0.08     -1.22
   0.00000055  -0.00000256   0.00000066          0.08     -0.38      0.10
  -0.00000830   0.00000066  -0.00003637         -1.22      0.10     -5.35

     BFGS Geometry Optimization

     number of scf cycles    =   1
     number of bfgs steps    =   0

     energy   new            =   -1152.8968236717 Ry

     new trust radius        =       0.1672791915 bohr
     new conv_thr            =       0.0000099958 Ry

ATOMIC_POSITIONS (crystal)
Sc1      0.166666667   0.166666667   0.395942884    0   0   0
Sc1      0.666666667   0.166666667   0.395942884    0   0   0
Sc1      0.166666667   0.666666667   0.395942884    0   0   0
Sc1      0.666666667   0.666666667   0.395942884    0   0   0
Sc1      0.833333333   0.333333333   0.500000000    0   0   0
Sc1      0.333333333   0.333333333   0.500000000    0   0   0
Sc1      0.833333333   0.833333333   0.500000000    0   0   0
Sc1      0.333333333   0.833333333   0.500000000    0   0   0
Sc1      0.000646472   0.000321384   0.604060760
Sc1      0.498894601   0.000734839   0.604106167
Sc1      0.000409008   0.498867035   0.604078324
Sc1      0.500058694   0.499949731   0.603722275
C1       0.170350507   0.166810930   0.670739850
H1       0.330020199   0.166438967   0.690969832
H1       0.020273914   0.322399041   0.691422942
H1       0.175533735   0.011147286   0.691401246

     Writing output data file calc.save
     Check: negative starting charge=   -0.000263
     NEW-OLD atomic charge density approx. for the potential
     Check: negative starting charge=   -0.000263

[...]

     energy   old            =   -1152.8968236717 Ry
     energy   new            =   -1152.9277851316 Ry

     CASE: energy  _new < energy  _old

[...]

     Threshold (ethr) on eigenvalues was too large:
     Diagonalizing with lowered threshold

     Davidson diagonalization with overlap
     ethr =  7.45E-08,  avg # of iterations =  6.2

[...]

     Total force =     0.004763     Total SCF correction =     0.000526
     SCF correction compared to forces is large: reduce conv_thr to get better values

[...]

     Threshold (ethr) on eigenvalues was too large:
     Diagonalizing with lowered threshold

     Davidson diagonalization with overlap
     ethr =  6.36E-08,  avg # of iterations =  2.0

[...]

     number of scf cycles    =  21
     number of bfgs steps    =  20

     energy   old            =   -1152.9368992376 Ry
     energy   new            =   -1152.9370110033 Ry

     CASE: energy  _new < energy  _old

     new trust radius        =       0.0200647330 bohr
     new conv_thr            =       0.0000001000 Ry

ATOMIC_POSITIONS (crystal)
Sc1      0.166666667   0.166666667   0.395942884    0   0   0
Sc1      0.666666667   0.166666667   0.395942884    0   0   0
Sc1      0.166666667   0.666666667   0.395942884    0   0   0
Sc1      0.666666667   0.666666667   0.395942884    0   0   0
Sc1      0.833333333   0.333333333   0.500000000    0   0   0
Sc1      0.333333333   0.333333333   0.500000000    0   0   0
Sc1      0.833333333   0.833333333   0.500000000    0   0   0
Sc1      0.333333333   0.833333333   0.500000000    0   0   0
Sc1      0.007942450   0.004660688   0.606307470
Sc1      0.490947026   0.006717880   0.606306991
Sc1      0.007057368   0.489145004   0.606448629
Sc1      0.501882085   0.500547594   0.597110804
C1       0.169374044   0.166729242   0.677280353
H1       0.333802741   0.149324388   0.695288532
H1       0.024118685   0.330022601   0.696107641
H1       0.152739047   0.020495876   0.696018066

     Writing output data file calc.save
     Check: negative starting charge=   -0.000253
     NEW-OLD atomic charge density approx. for the potential
     Check: negative starting charge=   -0.000253

[...]

     Self-consistent Calculation

[...]

     total energy              =   -1152.93705576 Ry
     Harris-Foulkes estimate   =   -1152.93705574 Ry
     estimated scf accuracy    <       0.00000018 Ry

     iteration # 10     ecut=    36.75 Ry     beta=0.30
     Davidson diagonalization with overlap
     ethr =  1.32E-10,  avg # of iterations =  6.3

[...]

     negative rho (up, down):  1.856E-04 0.000E+00

     Adding external electric field

     Computed dipole along edir(3) :
        Dipole                0.1613 Ry au,          0.4100 Debye
        Dipole field          0.0003 Ry au

        Potential amp.       -0.0308 Ry
        Total length         46.5341 bohr

     End of self-consistent calculation

[...]

          k = 0.0518-0.0598 0.0000 ( 23012 PWs)   bands (ev):

[...]

          k =-0.0777-0.0448 0.0000 ( 23032 PWs)   bands (ev):

   -49.1659 -49.1481 -49.1379 -49.1268 -49.1195 -49.1011 -49.0965 -48.9634
   -48.7123 -48.6485 -48.6369 -48.6264 -27.8520 -27.8443 -27.8276 -27.8132
   -27.7991 -27.7973 -27.7933 -27.7892 -27.7669 -27.7630 -27.7578 -27.7472
   -27.6997 -27.6898 -27.6861 -27.6791 -27.6762 -27.6652 -27.6620 -27.5884
   -27.5613 -27.5567 -27.5344 -27.4730 -27.3801 -27.3301 -27.2997 -27.2864
   -27.2461 -27.2237 -27.2218 -27.2124 -27.2047 -27.2022 -27.1526 -27.1144
   -13.2458  -6.2915  -6.2445  -3.2576  -2.6071  -2.4836  -1.6024  -1.3985
    -0.7151  -0.6982  -0.4195  -0.3229  -0.1530  -0.1383   0.5054   0.5288
     0.5655   0.5829   0.6048   0.6572   0.8350   0.8564   0.8796   0.8893
     0.9534   0.9986   1.0100   1.1679   1.2363   1.2717   1.3351

     the Fermi energy is     0.8059 ev

!    total energy              =   -1152.93705578 Ry
     Harris-Foulkes estimate   =   -1152.93705592 Ry
     estimated scf accuracy    <       0.00000004 Ry

     The total energy is the sum of the following terms:

     one-electron contribution =   -7371.70038586 Ry
     hartree contribution      =    3671.19248214 Ry
     xc contribution           =    -172.49091375 Ry
     ewald contribution        =    2720.19784253 Ry
     electric field correction =       0.00005347 Ry
     smearing contrib. (-TS)   =      -0.13613431 Ry

     convergence has been achieved in  10 iterations

 BEEF-vdW xc energy contributions
           1 :   -146.074853475324
           2 :    128.452361292390
           3 :   -101.035330871960
           4 :    74.4446905216857
           5 :   -56.0800892829177
           6 :    47.1845132897951
           7 :   -44.1680387268843
           8 :    42.3582837572447
           9 :   -39.1921026807229
          10 :    34.9558851196198
          11 :   -31.3216283703270
          12 :    29.3642910206638
          13 :   -28.6732720707518
          14 :    27.9638962750918
          15 :   -26.3491145406884
          16 :    24.0620961242724
          17 :   -22.0841624079577
          18 :    21.1502760235925
          19 :   -21.0918034537009
          20 :    21.0618303944199
          21 :   -20.3425487395795
          22 :    18.9515575320710
          23 :   -17.5357924802934
          24 :    16.7286269778040
          25 :   -16.5955259671333
          26 :    16.6413490765082
          27 :   -16.3092823365752
          28 :    15.4788811659243
          29 :   -14.5240095693596
          30 :    13.9232228214571
          31 :   -17.3519448846219
          32 :   -12.4262371057674

     Forces acting on atoms (Ry/au):

     negative rho (up, down):  1.856E-04 0.000E+00
     atom    1 type  1   force =    -0.00004246    0.00000301    0.00156788
     atom    2 type  1   force =    -0.00000366   -0.00171387    0.00128347
     atom    3 type  1   force =    -0.00150684    0.00084988    0.00127979
     atom    4 type  1   force =     0.00147567    0.00084060    0.00135044
     atom    5 type  1   force =     0.00255927   -0.00130612   -0.00117139
     atom    6 type  1   force =    -0.00162831   -0.00110788   -0.00084098
     atom    7 type  1   force =     0.00030643   -0.00002871    0.00108944
     atom    8 type  1   force =     0.00010151    0.00258995   -0.00116381
     atom    9 type  1   force =    -0.00001311   -0.00020933    0.00031010
     atom   10 type  1   force =     0.00036678   -0.00022643   -0.00021059
     atom   11 type  1   force =    -0.00124152    0.00051422   -0.00011574
     atom   12 type  1   force =    -0.00032958   -0.00028575   -0.00013950
     atom   13 type  2   force =    -0.00115552    0.00017041   -0.00142637
     atom   14 type  3   force =     0.00070729   -0.00135867    0.00030228
     atom   15 type  3   force =     0.00124548    0.00079105   -0.00103894
     atom   16 type  3   force =    -0.00084145    0.00047766   -0.00107607

     Total force =     0.003686     Total SCF correction =     0.000305

     entering subroutine stress ...

     negative rho (up, down):  1.856E-04 0.000E+00
          total   stress  (Ry/bohr**3)                   (kbar)     P=    1.00
   0.00001677  -0.00000086  -0.00000085          2.47     -0.13     -0.13
  -0.00000086   0.00001705  -0.00000006         -0.13      2.51     -0.01
  -0.00000085  -0.00000006  -0.00001350         -0.13     -0.01     -1.99

     bfgs converged in  22 scf cycles and  21 bfgs steps
     (criteria: energy <  1.0E+00, force <  1.9E-03)

     End of BFGS Geometry Optimization

     Final energy   =   -1152.9370557770 Ry
Begin final coordinates

ATOMIC_POSITIONS (crystal)
Sc1      0.166666667   0.166666667   0.395942884    0   0   0
Sc1      0.666666667   0.166666667   0.395942884    0   0   0
Sc1      0.166666667   0.666666667   0.395942884    0   0   0
Sc1      0.666666667   0.666666667   0.395942884    0   0   0
Sc1      0.833333333   0.333333333   0.500000000    0   0   0
Sc1      0.333333333   0.333333333   0.500000000    0   0   0
Sc1      0.833333333   0.833333333   0.500000000    0   0   0
Sc1      0.333333333   0.833333333   0.500000000    0   0   0
Sc1      0.007942450   0.004660688   0.606307470
Sc1      0.490947026   0.006717880   0.606306991
Sc1      0.007057368   0.489145004   0.606448629
Sc1      0.501882085   0.500547594   0.597110804
C1       0.169374044   0.166729242   0.677280353
H1       0.333802741   0.149324388   0.695288532
H1       0.024118685   0.330022601   0.696107641
H1       0.152739047   0.020495876   0.696018066
End final coordinates

     Writing output data file calc.save

     General routines

     Parallel routines

   This run was terminated on:   3:32:36  23Apr2018

   JOB DONE.
Job  /afs/slac/g/suncat/bin/suncat-tsmpirun -x LD_LIBRARY_PATH -wdir /scratch/qe357404_nTiJO pw.x -npool 4 -in pw.inp

TID   HOST_NAME   COMMAND_LINE            STATUS            TERMINATION_TIME
00000 suncat0161 pw.x -npool 4 -i  Done                     04/23/2018 03:32:36
00001 suncat0161 pw.x -npool 4 -i  Done                     04/23/2018 03:32:36
00002 suncat0161 pw.x -npool 4 -i  Done                     04/23/2018 03:32:36
00003 suncat0161 pw.x -npool 4 -i  Done                     04/23/2018 03:32:36
00004 suncat0161 pw.x -npool 4 -i  Done                     04/23/2018 03:32:36
00005 suncat0161 pw.x -npool 4 -i  Done                     04/23/2018 03:32:36
00006 suncat0161 pw.x -npool 4 -i  Done                     04/23/2018 03:32:36
00007 suncat0161 pw.x -npool 4 -i  Done                     04/23/2018 03:32:36
00008 suncat0160 pw.x -npool 4 -i  Done                     04/23/2018 03:32:36
00009 suncat0160 pw.x -npool 4 -i  Done                     04/23/2018 03:32:36
00010 suncat0160 pw.x -npool 4 -i  Done                     04/23/2018 03:32:36
00011 suncat0160 pw.x -npool 4 -i  Done                     04/23/2018 03:32:36
00012 suncat0160 pw.x -npool 4 -i  Done                     04/23/2018 03:32:36
00013 suncat0160 pw.x -npool 4 -i  Done                     04/23/2018 03:32:36
00014 suncat0160 pw.x -npool 4 -i  Done                     04/23/2018 03:32:36
00015 suncat0160 pw.x -npool 4 -i  Done                     04/23/2018 03:32:36
00016 suncat0156 pw.x -npool 4 -i  Done                     04/23/2018 03:32:36
00017 suncat0156 pw.x -npool 4 -i  Done                     04/23/2018 03:32:36
00018 suncat0156 pw.x -npool 4 -i  Done                     04/23/2018 03:32:36
00019 suncat0156 pw.x -npool 4 -i  Done                     04/23/2018 03:32:36
00020 suncat0156 pw.x -npool 4 -i  Done                     04/23/2018 03:32:36
00021 suncat0156 pw.x -npool 4 -i  Done                     04/23/2018 03:32:36
00022 suncat0156 pw.x -npool 4 -i  Done                     04/23/2018 03:32:36
00023 suncat0156 pw.x -npool 4 -i  Done                     04/23/2018 03:32:36
00024 suncat0256 pw.x -npool 4 -i  Done                     04/23/2018 03:32:36
00025 suncat0256 pw.x -npool 4 -i  Done                     04/23/2018 03:32:36
00026 suncat0256 pw.x -npool 4 -i  Done                     04/23/2018 03:32:36
00027 suncat0256 pw.x -npool 4 -i  Done                     04/23/2018 03:32:36
00028 suncat0256 pw.x -npool 4 -i  Done                     04/23/2018 03:32:36
00029 suncat0256 pw.x -npool 4 -i  Done                     04/23/2018 03:32:36
00030 suncat0256 pw.x -npool 4 -i  Done                     04/23/2018 03:32:36
00031 suncat0256 pw.x -npool 4 -i  Done                     04/23/2018 03:32:36