     Program PWSCF v.5.1rc2 (svn rev. 11289) starts on  3May2018 at  5:24:46

     Current dimensions of program PWSCF are:
     Max number of different atomic species (ntypx) = 10
     Max number of k-points (npk) =  40000
     Max angular momentum in pseudopotentials (lmaxx) =  3
     Presently stress not available with electric field

     IMPORTANT: XC functional enforced from input :
     Exchange-correlation      = BEEF-VDW ( 1  4 27 13 2)
     Any further DFT definition will be discarded
     Please, verify this is what you really want

     Subspace diagonalization in iterative solution of the eigenvalue problem:
     a serial algorithm will be used

     bravais-lattice index     =            0
     lattice parameter (alat)  =       1.8897  a.u.
     unit-cell volume          =    4704.3541 (a.u.)^3
     number of atoms/cell      =           13
     number of atomic types    =            2
     number of electrons       =       174.00
     number of Kohn-Sham states=           97
     kinetic-energy cutoff     =      36.7493  Ry
     charge density cutoff     =     367.4932  Ry
     convergence threshold     =      1.0E-05
     mixing beta               =       0.3000
     number of iterations used =           10  plain     mixing
     Exchange-correlation      = BEEF-VDW ( 1  4 27 13 2)
     nstep                     =           50

     celldm(1)=   1.889726  celldm(2)=   0.000000  celldm(3)=   0.000000
     celldm(4)=   0.000000  celldm(5)=   0.000000  celldm(6)=   0.000000

     crystal axes: (cart. coord. in units of alat)
               a(1) = (   5.712816   0.000000   0.000000 )
               a(2) = (   2.856408   4.947444   0.000000 )
               a(3) = (   0.000000   0.000000  24.664495 )

     reciprocal axes: (cart. coord. in units 2 pi/alat)
               b(1) = (  0.175045 -0.101062  0.000000 )
               b(2) = (  0.000000  0.202125  0.000000 )
               b(3) = (  0.000000  0.000000  0.040544 )

     PseudoPot. # 1 for W  read from file:
     /u/if/mamunm/psp/gbrv1.5pbe/W.UPF
     MD5 check sum: 9c083fa34c2a2ea0f02f1f893e16e1c8
     Pseudo is Ultrasoft + core correction, Zval = 14.0
     Generated by new atomic code, or converted to UPF format
     Using radial grid of  923 points,  8 beta functions with:
                l(1) =   0
                l(2) =   0
                l(3) =   0
                l(4) =   1
                l(5) =   1
                l(6) =   2
                l(7) =   2
                l(8) =   3
     Q(r) pseudized with  6 coefficients,  rinner =    1.350   1.350   1.350
                                                       1.350   1.350   1.350
                                                       1.350

     PseudoPot. # 2 for S  read from file:
     /u/if/mamunm/psp/gbrv1.5pbe/S.UPF
     MD5 check sum: 88d86576ff6df21479756cfb9bdac1df
     Pseudo is Ultrasoft + core correction, Zval =  6.0
     Generated by new atomic code, or converted to UPF format
     Using radial grid of  907 points,  6 beta functions with:
                l(1) =   0
                l(2) =   0
                l(3) =   1
                l(4) =   1
                l(5) =   2
                l(6) =   2
     Q(r) pseudized with  8 coefficients,  rinner =    1.300   1.300   1.300
                                                       1.300   1.300

     vdW kernel table read from file vdW_kernel_table
     MD5 check sum: 095c7af220d748ca6e76c0b4c6cfb241

     atomic species   valence    mass     pseudopotential
        W1            14.00   183.84000     W ( 1.00)
        S1             6.00    32.06000     S ( 1.00)

     No symmetry found

   Cartesian axes

     site n.     atom                  positions (alat units)
         1           W1  tau(   1) = (   1.4282041   0.8245740  10.0000000  )
         2           W1  tau(   2) = (   4.2846123   0.8245740  10.0000000  )
         3           W1  tau(   3) = (   2.8564082   3.2982961  10.0000000  )
         4           W1  tau(   4) = (   5.7128165   3.2982961  10.0000000  )
         5           W1  tau(   5) = (   5.7128165   1.6491481  12.3322476  )
         6           W1  tau(   6) = (   2.8564082   1.6491481  12.3322476  )
         7           W1  tau(   7) = (   7.1410206   4.1228701  12.3322476  )
         8           W1  tau(   8) = (   4.2846123   4.1228701  12.3322476  )
         9           W1  tau(   9) = (   0.0000000   0.0000000  14.6644951  )
        10           W1  tau(  10) = (   2.8564082   0.0000000  14.6644951  )
        11           W1  tau(  11) = (   1.4282041   2.4737221  14.6644951  )
        12           W1  tau(  12) = (   4.2846123   2.4737221  14.6644951  )
        13           S1  tau(  13) = (   0.0000000   0.0000000  16.9339951  )

     number of k points=    20  Fermi-Dirac smearing, width (Ry)=  0.0110
                       cart. coord. in units 2pi/alat
        k(    1) = (   0.0000000   0.0000000   0.0000000), wk =   0.0555556
        k(    2) = (   0.0000000   0.0336874   0.0000000), wk =   0.1111111
        k(    3) = (   0.0000000   0.0673749   0.0000000), wk =   0.1111111
        k(    4) = (   0.0000000  -0.1010623   0.0000000), wk =   0.0555556
        k(    5) = (   0.0291742  -0.0168437   0.0000000), wk =   0.1111111
        k(    6) = (   0.0291742   0.0168437   0.0000000), wk =   0.1111111
        k(    7) = (   0.0291742   0.0505311   0.0000000), wk =   0.1111111
        k(    8) = (   0.0291742  -0.1179060   0.0000000), wk =   0.1111111
        k(    9) = (   0.0291742  -0.0842186   0.0000000), wk =   0.1111111
        k(   10) = (   0.0291742  -0.0505311   0.0000000), wk =   0.1111111
        k(   11) = (   0.0583483  -0.0336874   0.0000000), wk =   0.1111111
        k(   12) = (   0.0583483  -0.0000000   0.0000000), wk =   0.1111111
        k(   13) = (   0.0583483   0.0336874   0.0000000), wk =   0.1111111
        k(   14) = (   0.0583483  -0.1347497   0.0000000), wk =   0.1111111
        k(   15) = (   0.0583483  -0.1010623   0.0000000), wk =   0.1111111
        k(   16) = (   0.0583483  -0.0673749   0.0000000), wk =   0.1111111
        k(   17) = (  -0.0875225   0.0505311   0.0000000), wk =   0.0555556
        k(   18) = (  -0.0875225   0.0842186   0.0000000), wk =   0.1111111
        k(   19) = (  -0.0875225   0.1179060   0.0000000), wk =   0.1111111
        k(   20) = (  -0.0875225  -0.0505311   0.0000000), wk =   0.0555556

     Largest allocated arrays     est. size (Mb)     dimensions
     Largest temporary arrays     est. size (Mb)     dimensions

     Initial potential from superposition of free atoms
     Check: negative starting charge=   -0.760327

     starting charge  172.79588, renormalised to  174.00000

     negative rho (up, down):  7.656E-01 0.000E+00

     *
     * You are using vdW-DF for exchange-correlation in this calculation.
     * Please cite the following three references that made this development
     * possible:
     *
     *   M. Dion, H. Rydberg, E. Schroder, D. C. Langreth, and
     *   B. I. Lundqvist, Phys. Rev. Lett. 92, 246401 (2004).
     *
     *   T. Thonhauser, V. R. Cooper, S. Li, A. Puzder, P. Hyldgaard, and
     *   D. C. Langreth, Phys. Rev. B 76, 125112 (2007).
     *
     *   G. Roman-Perez and J. M. Soler, Phys. Rev. Lett. 103, 096102 (2009).
     *
     *
     * If you are using vdW-DF2, please also cite:
     *
     *   K. Lee, E. D. Murray, L. Kong, B. I. Lundqvist, and
     *   D. C. Langreth, Phys. Rev. B 82, 081101(R) (2010).
     *
     *
     * If you are calculating the stress with vdW-DF, please also cite:
     *
     *   R. Sabatini, E. Kucukbenli, B. Kolb, T. Thonhauser, and
     *   S. de Gironcoli, J. Phys.: Condens. Matter 24, 424209 (2012).
     *

     Carrying out vdW-DF run using the following parameters:

     Nqs =      20    Nr_points =    1024   r_max =   100.000
     q_mesh =
               0.00001000     0.04494208     0.09755937     0.15916263
               0.23128650     0.31572767     0.41458969     0.53033537
               0.66584808     0.82450364     1.01025438     1.22772762
               1.48234092     1.78043706     2.12944203     2.53805004
               3.01644009     3.57652955     4.23227104     5.00000000

     Gradients computed in reciprocal space

     Adding external electric field

     Computed dipole along edir(3) :
        Dipole               -0.3633 Ry au,         -0.9233 Debye
        Dipole field         -0.0010 Ry au

        Potential amp.        0.0882 Ry
        Total length         45.4439 bohr

     Starting wfc are  160 randomized atomic wfcs

     Self-consistent Calculation

     iteration #  1     ecut=    36.75 Ry     beta=0.30
     Davidson diagonalization with overlap
     ethr =  1.00E-02,  avg # of iterations =  2.0

[...]

     total energy              =   -1945.70608172 Ry
     Harris-Foulkes estimate   =   -1949.56035463 Ry
     estimated scf accuracy    <       8.14258816 Ry

[...]

     End of self-consistent calculation

          k = 0.0000 0.0000 0.0000 ( 17753 PWs)   bands (ev):

   -71.7744 -71.7095 -71.6751 -71.6733 -71.6618 -71.6200 -71.5796 -71.5663
   -71.5660 -71.5594 -71.5437 -71.5435 -36.2751 -36.2749 -36.2551 -36.2278
   -36.2174 -36.2172 -36.1863 -36.0734 -36.0732 -36.0667 -35.9217 -35.8528
   -35.8040 -35.8027 -35.7010 -35.6955 -35.6952 -35.6030 -35.6028 -35.5993
   -35.5207 -35.4956 -35.4956 -35.4870 -35.4767 -35.4766 -35.4270 -35.3826
   -35.3825 -35.3726 -35.3593 -35.3589 -35.2932 -35.2932 -35.2003 -35.2003
    -9.7069  -5.6339  -3.8937  -3.0607  -2.5130  -2.5129  -2.4924  -2.3253
    -2.2965  -2.2965  -1.5617  -1.5615  -1.5193  -1.5096  -1.4913  -1.4913
    -0.6008  -0.6006  -0.5228   0.0028   0.6825   0.6826   1.1702   1.3002
     1.4554   1.4555   1.5507   1.9532   1.9532   2.0466   2.0730   2.0735
     2.2649   2.2649   2.3696   2.3737   2.3738   2.5259   2.5259   2.7506
     3.2474   3.5212   3.6481   3.6483   4.1498   4.1504   4.1506   4.4286
     4.7254

[...]

          k =-0.0875 0.0505 0.0000 ( 17668 PWs)   bands (ev):

[...]

     the Fermi energy is     2.5440 ev

!    total energy              =   -1949.21562516 Ry
     Harris-Foulkes estimate   =   -1949.21562248 Ry
     estimated scf accuracy    <       0.00000305 Ry

     The total energy is the sum of the following terms:

     one-electron contribution =  -14886.58816179 Ry
     hartree contribution      =    7429.30151603 Ry
     xc contribution           =    -519.03806824 Ry
     ewald contribution        =    6027.20717918 Ry
     electric field correction =       0.00002726 Ry
     smearing contrib. (-TS)   =      -0.09811761 Ry

     convergence has been achieved in  18 iterations

 BEEF-vdW xc energy contributions
           1 :   -456.439255581034
           2 :    421.963706840981
           3 :   -361.312932184332
           4 :    287.841679548703
           5 :   -215.397383175927
           6 :    154.332110791781
           7 :   -109.314776677726
           8 :    79.4404706300861
           9 :   -60.2093106422321
          10 :    46.2770395443517
          11 :   -33.7489613995795
          12 :    21.2044686470165
          13 :   -9.34867303373085
          14 :  -0.196756409879413
          15 :    6.19970477080938
          16 :   -8.59894265738041
          17 :    8.50776995365209
          18 :   -7.58990322287940
          19 :    7.22767756232679
          20 :   -7.93758731628304
          21 :    9.30310788895122
          22 :   -10.3985618165751
          23 :    10.4243735736127
          24 :   -9.19350742951616
          25 :    7.22372706270494
          26 :   -5.42222998705563
          27 :    4.56910029810763
          28 :   -4.89859754892899
          29 :    6.00175827980365
          30 :   -7.08266162429857
          31 :   -41.5123545093511
          32 :   -31.0383769307992

     Forces acting on atoms (Ry/au):

     negative rho (up, down):  7.922E-01 0.000E+00
     atom    1 type  1   force =     0.00076031    0.00048163   -0.00196355
     atom    2 type  1   force =    -0.00076314    0.00048428   -0.00196905
     atom    3 type  1   force =     0.00000205   -0.00092293   -0.00200961
     atom    4 type  1   force =    -0.00000144   -0.00004541   -0.00231904
     atom    5 type  1   force =    -0.00000377   -0.00012820   -0.00180437
     atom    6 type  1   force =     0.00000942    0.00009905    0.01175608
     atom    7 type  1   force =     0.00019602    0.00001517   -0.00193018
     atom    8 type  1   force =    -0.00019801    0.00000425   -0.00192158
     atom    9 type  1   force =     0.00000759    0.00004460    0.09574221
     atom   10 type  1   force =    -0.00000579    0.00162470   -0.02011319
     atom   11 type  1   force =     0.00137448   -0.00083034   -0.02018891
     atom   12 type  1   force =    -0.00137776   -0.00082626   -0.02018679
     atom   13 type  2   force =     0.00000004   -0.00000055   -0.03309201

     Total force =     0.107187     Total SCF correction =     0.001136

     entering subroutine stress ...

     negative rho (up, down):  7.922E-01 0.000E+00
          total   stress  (Ry/bohr**3)                   (kbar)     P=  -46.25
  -0.00042004   0.00000000  -0.00000001        -61.79      0.00     -0.00
   0.00000000  -0.00042015   0.00000001          0.00    -61.81      0.00
  -0.00000001   0.00000001  -0.00010303         -0.00      0.00    -15.16

     BFGS Geometry Optimization

     number of scf cycles    =   1
     number of bfgs steps    =   0

     energy   new            =   -1949.2156251639 Ry

     new trust radius        =       0.0957422181 bohr
     new conv_thr            =       0.0000099958 Ry

ATOMIC_POSITIONS (crystal)
W1       0.166666667   0.166666667   0.405441099    0   0   0
W1       0.666666667   0.166666667   0.405441099    0   0   0
W1       0.166666667   0.666666667   0.405441099    0   0   0
W1       0.666666667   0.666666667   0.405441099    0   0   0
W1       0.833333333   0.333333333   0.500000000    0   0   0
W1       0.333333333   0.333333333   0.500000000    0   0   0
W1       0.833333333   0.833333333   0.500000000    0   0   0
W1       0.333333333   0.833333333   0.500000000    0   0   0
W1      -0.000001682   0.000004770   0.596613052
W1       0.499912574   0.000173778   0.594127372
W1       0.000171724   0.499911187   0.594125747
W1       0.499916566   0.499911623   0.594125793
S1       0.000000034  -0.000000059   0.685863769

     Writing output data file calc.save
     Check: negative starting charge=   -0.760327
     NEW-OLD atomic charge density approx. for the potential
     Check: negative starting charge=   -0.761738

[...]

     energy   old            =   -1949.2156251639 Ry
     energy   new            =   -1949.2251294080 Ry

     CASE: energy  _new < energy  _old

[...]

     iteration #  1     ecut=    36.75 Ry     beta=0.30
     Davidson diagonalization with overlap
     c_bands:  1 eigenvalues not converged
     ethr =  1.00E-06,  avg # of iterations = 14.1

[...]

     Total force =     0.016505     Total SCF correction =     0.000973

[...]

     Total force =     0.009669     Total SCF correction =     0.000981
     SCF correction compared to forces is large: reduce conv_thr to get better values

[...]

     number of scf cycles    =  12
     number of bfgs steps    =  11

     energy   old            =   -1949.2631143430 Ry
     energy   new            =   -1949.2632060462 Ry

     CASE: energy  _new < energy  _old

     new trust radius        =       0.0047561639 bohr
     new conv_thr            =       0.0000001000 Ry

ATOMIC_POSITIONS (crystal)
W1       0.166666667   0.166666667   0.405441099    0   0   0
W1       0.666666667   0.166666667   0.405441099    0   0   0
W1       0.166666667   0.666666667   0.405441099    0   0   0
W1       0.666666667   0.666666667   0.405441099    0   0   0
W1       0.833333333   0.333333333   0.500000000    0   0   0
W1       0.333333333   0.333333333   0.500000000    0   0   0
W1       0.833333333   0.833333333   0.500000000    0   0   0
W1       0.333333333   0.833333333   0.500000000    0   0   0
W1      -0.000000656  -0.000000724   0.611233887
W1       0.502876838  -0.005753128   0.588468097
W1      -0.005762336   0.502886118   0.588469012
W1       0.502874715   0.502887069   0.588468851
S1       0.000000304  -0.000001084   0.698408203

     Writing output data file calc.save
     Check: negative starting charge=   -0.761781
     NEW-OLD atomic charge density approx. for the potential
     Check: negative starting charge=   -0.761745

[...]

     Self-consistent Calculation

[...]

     Threshold (ethr) on eigenvalues was too large:
     Diagonalizing with lowered threshold

     Davidson diagonalization with overlap
     ethr =  2.45E-08,  avg # of iterations =  3.5

[...]

     total energy              =   -1949.26322760 Ry
     Harris-Foulkes estimate   =   -1949.26322761 Ry
     estimated scf accuracy    <       0.00000025 Ry

     iteration #  8     ecut=    36.75 Ry     beta=0.30
     Davidson diagonalization with overlap
     ethr =  1.45E-10,  avg # of iterations =  2.5

[...]

     negative rho (up, down):  7.937E-01 0.000E+00

     Adding external electric field

     Computed dipole along edir(3) :
        Dipole               -0.1872 Ry au,         -0.4759 Debye
        Dipole field         -0.0005 Ry au

        Potential amp.        0.0455 Ry
        Total length         45.4439 bohr

     End of self-consistent calculation

[...]

          k = 0.0583-0.0674 0.0000 ( 17692 PWs)   bands (ev):

[...]

          k =-0.0875-0.0505 0.0000 ( 17668 PWs)   bands (ev):

   -71.7507 -71.7324 -71.7246 -71.6917 -71.6866 -71.6835 -71.6713 -71.6448
   -71.6305 -71.6128 -71.5974 -71.5918 -36.2230 -36.2051 -36.1933 -36.1580
   -36.1354 -36.1044 -36.0482 -36.0322 -35.9883 -35.9820 -35.9787 -35.9564
   -35.8749 -35.8056 -35.7676 -35.7587 -35.7455 -35.7382 -35.7307 -35.7071
   -35.6937 -35.6908 -35.6774 -35.6247 -35.5924 -35.5800 -35.5498 -35.5381
   -35.4866 -35.4615 -35.4318 -35.4202 -35.4146 -35.3844 -35.3750 -35.3235
    -9.5431  -3.8453  -3.7483  -2.3498  -2.2176  -1.6552  -1.5517  -1.5457
    -1.5015  -1.3888  -1.3022  -0.7841  -0.7123  -0.6239  -0.4063  -0.3573
    -0.2026  -0.1891  -0.0980  -0.0333   0.1612   0.3232   0.4263   0.5329
     0.6040   0.6515   0.8769   1.1229   1.2223   1.2638   1.3277   1.3855
     1.3905   1.5694   1.6327   1.6980   1.8594   2.0184   2.0466   2.2688
     2.4718   2.6091   3.1537   3.3292   3.4453   3.4785   3.7019   3.7340
     3.8169

     the Fermi energy is     2.4334 ev

!    total energy              =   -1949.26322759 Ry
     Harris-Foulkes estimate   =   -1949.26322732 Ry
     estimated scf accuracy    <       0.00000003 Ry

     The total energy is the sum of the following terms:

     one-electron contribution =  -14810.85262080 Ry
     hartree contribution      =    7391.25286181 Ry
     xc contribution           =    -519.16037264 Ry
     ewald contribution        =    5989.58507269 Ry
     electric field correction =       0.00009363 Ry
     smearing contrib. (-TS)   =      -0.08826228 Ry

     convergence has been achieved in   8 iterations

 BEEF-vdW xc energy contributions
           1 :   -456.557040089860
           2 :    422.064753507505
           3 :   -361.403504454496
           4 :    287.923999310479
           5 :   -215.444732415589
           6 :    154.303144721756
           7 :   -109.185658473996
           8 :    79.2275226904497
           9 :   -59.9667007321463
          10 :    46.0712829630343
          11 :   -33.6262804662622
          12 :    21.1675980433218
          13 :   -9.35215664668539
          14 :  -0.230835817784111
          15 :    6.35100252751732
          16 :   -8.91504579577872
          17 :    8.97933974890748
          18 :   -8.14640847633922
          19 :    7.76075983784750
          20 :   -8.34538808420666
          21 :    9.53716053548982
          22 :   -10.4896286339596
          23 :    10.4688359993102
          24 :   -9.30204481292850
          25 :    7.45823916196235
          26 :   -5.75780963303004
          27 :    4.90584467163609
          28 :   -5.11963825591630
          29 :    6.04472778245571
          30 :   -6.98133537293637
          31 :   -41.5179297970373
          32 :   -31.0362932846348

     Forces acting on atoms (Ry/au):

     negative rho (up, down):  7.937E-01 0.000E+00
     atom    1 type  1   force =     0.00028803    0.00016588    0.00563409
     atom    2 type  1   force =    -0.00028794    0.00016576    0.00563403
     atom    3 type  1   force =    -0.00000001   -0.00033366    0.00563436
     atom    4 type  1   force =     0.00000009   -0.00000080   -0.00477089
     atom    5 type  1   force =     0.00000030   -0.03612085    0.00484841
     atom    6 type  1   force =    -0.00000015   -0.00000175   -0.02660781
     atom    7 type  1   force =     0.03128267    0.01805879    0.00484236
     atom    8 type  1   force =    -0.03128273    0.01805938    0.00484212
     atom    9 type  1   force =     0.00000123    0.00000876   -0.00157482
     atom   10 type  1   force =    -0.00000048    0.00070218    0.00003211
     atom   11 type  1   force =     0.00059913   -0.00035196    0.00002869
     atom   12 type  1   force =    -0.00060006   -0.00035110    0.00002949
     atom   13 type  2   force =    -0.00000008   -0.00000064    0.00142786

     Total force =     0.002446     Total SCF correction =     0.000379
     SCF correction compared to forces is large: reduce conv_thr to get better values

     entering subroutine stress ...

     negative rho (up, down):  7.937E-01 0.000E+00
          total   stress  (Ry/bohr**3)                   (kbar)     P=  -39.35
  -0.00035578   0.00000000  -0.00000000        -52.34      0.00     -0.00
   0.00000000  -0.00035577   0.00000001          0.00    -52.34      0.00
  -0.00000000   0.00000001  -0.00009093         -0.00      0.00    -13.38

     bfgs converged in  13 scf cycles and  12 bfgs steps
     (criteria: energy <  1.0E+00, force <  1.9E-03)

     End of BFGS Geometry Optimization

     Final energy   =   -1949.2632275929 Ry
Begin final coordinates

ATOMIC_POSITIONS (crystal)
W1       0.166666667   0.166666667   0.405441099    0   0   0
W1       0.666666667   0.166666667   0.405441099    0   0   0
W1       0.166666667   0.666666667   0.405441099    0   0   0
W1       0.666666667   0.666666667   0.405441099    0   0   0
W1       0.833333333   0.333333333   0.500000000    0   0   0
W1       0.333333333   0.333333333   0.500000000    0   0   0
W1       0.833333333   0.833333333   0.500000000    0   0   0
W1       0.333333333   0.833333333   0.500000000    0   0   0
W1      -0.000000656  -0.000000724   0.611233887
W1       0.502876838  -0.005753128   0.588468097
W1      -0.005762336   0.502886118   0.588469012
W1       0.502874715   0.502887069   0.588468851
S1       0.000000304  -0.000001084   0.698408203
End final coordinates

     Writing output data file calc.save

     General routines

     Parallel routines

   This run was terminated on:   7:29: 7   3May2018

   JOB DONE.
Job  /afs/slac/g/suncat/bin/suncat-tsmpirun -x LD_LIBRARY_PATH -wdir /scratch/qe630681_kYBx1 pw.x -npool 4 -in pw.inp

TID   HOST_NAME   COMMAND_LINE            STATUS            TERMINATION_TIME
00000 suncat0159 pw.x -npool 4 -i  Done                     05/03/2018 07:29:07
00001 suncat0159 pw.x -npool 4 -i  Done                     05/03/2018 07:29:07
00002 suncat0159 pw.x -npool 4 -i  Done                     05/03/2018 07:29:07
00003 suncat0159 pw.x -npool 4 -i  Done                     05/03/2018 07:29:07
00004 suncat0159 pw.x -npool 4 -i  Done                     05/03/2018 07:29:07
00005 suncat0159 pw.x -npool 4 -i  Done                     05/03/2018 07:29:07
00006 suncat0159 pw.x -npool 4 -i  Done                     05/03/2018 07:29:07
00007 suncat0159 pw.x -npool 4 -i  Done                     05/03/2018 07:29:07
00008 suncat0151 pw.x -npool 4 -i  Done                     05/03/2018 07:29:07
00009 suncat0151 pw.x -npool 4 -i  Done                     05/03/2018 07:29:07
00010 suncat0151 pw.x -npool 4 -i  Done                     05/03/2018 07:29:07
00011 suncat0151 pw.x -npool 4 -i  Done                     05/03/2018 07:29:07
00012 suncat0151 pw.x -npool 4 -i  Done                     05/03/2018 07:29:07
00013 suncat0151 pw.x -npool 4 -i  Done                     05/03/2018 07:29:07
00014 suncat0151 pw.x -npool 4 -i  Done                     05/03/2018 07:29:07
00015 suncat0151 pw.x -npool 4 -i  Done                     05/03/2018 07:29:07
00016 suncat0278 pw.x -npool 4 -i  Done                     05/03/2018 07:29:07
00017 suncat0278 pw.x -npool 4 -i  Done                     05/03/2018 07:29:07
00018 suncat0278 pw.x -npool 4 -i  Done                     05/03/2018 07:29:07
00019 suncat0278 pw.x -npool 4 -i  Done                     05/03/2018 07:29:07
00020 suncat0278 pw.x -npool 4 -i  Done                     05/03/2018 07:29:07
00021 suncat0278 pw.x -npool 4 -i  Done                     05/03/2018 07:29:07
00022 suncat0278 pw.x -npool 4 -i  Done                     05/03/2018 07:29:07
00023 suncat0278 pw.x -npool 4 -i  Done                     05/03/2018 07:29:07
00024 suncat0264 pw.x -npool 4 -i  Done                     05/03/2018 07:29:07
00025 suncat0264 pw.x -npool 4 -i  Done                     05/03/2018 07:29:07
00026 suncat0264 pw.x -npool 4 -i  Done                     05/03/2018 07:29:07
00027 suncat0264 pw.x -npool 4 -i  Done                     05/03/2018 07:29:07
00028 suncat0264 pw.x -npool 4 -i  Done                     05/03/2018 07:29:07
00029 suncat0264 pw.x -npool 4 -i  Done                     05/03/2018 07:29:07
00030 suncat0264 pw.x -npool 4 -i  Done                     05/03/2018 07:29:07
00031 suncat0264 pw.x -npool 4 -i  Done                     05/03/2018 07:29:07