     Program PWSCF v.5.1rc2 (svn rev. 11289) starts on 13Jan2018 at 23:30: 8

     Current dimensions of program PWSCF are:
     Max number of different atomic species (ntypx) = 10
     Max number of k-points (npk) =  40000
     Max angular momentum in pseudopotentials (lmaxx) =  3
     Presently stress not available with electric field

     IMPORTANT: XC functional enforced from input :
     Exchange-correlation      = BEEF-VDW ( 1  4 27 13 2)
     Any further DFT definition will be discarded
     Please, verify this is what you really want

     Subspace diagonalization in iterative solution of the eigenvalue problem:
     a serial algorithm will be used

     bravais-lattice index     =            0
     lattice parameter (alat)  =       1.8897  a.u.
     unit-cell volume          =    4299.0717 (a.u.)^3
     number of atoms/cell      =           13
     number of atomic types    =            2
     number of electrons       =       181.00
     number of Kohn-Sham states=          100
     kinetic-energy cutoff     =      36.7493  Ry
     charge density cutoff     =     367.4932  Ry
     convergence threshold     =      1.0E-05
     mixing beta               =       0.3000
     number of iterations used =           10  plain     mixing
     Exchange-correlation      = BEEF-VDW ( 1  4 27 13 2)
     nstep                     =           50

     celldm(1)=   1.889726  celldm(2)=   0.000000  celldm(3)=   0.000000
     celldm(4)=   0.000000  celldm(5)=   0.000000  celldm(6)=   0.000000

     crystal axes: (cart. coord. in units of alat)
               a(1) = (   5.482164   0.000000   0.000000 )
               a(2) = (   2.741082   4.747693   0.000000 )
               a(3) = (   0.000000   0.000000  24.476168 )

     reciprocal axes: (cart. coord. in units 2 pi/alat)
               b(1) = (  0.182410 -0.105314  0.000000 )
               b(2) = (  0.000000  0.210629  0.000000 )
               b(3) = (  0.000000  0.000000  0.040856 )

     PseudoPot. # 1 for Ir read from file:
     /afs/slac.stanford.edu/u/if/mamunm/psp/gbrv1.5pbe/Ir.UPF
     MD5 check sum: 8836f839c3459d2b385c504ce6d91f2c
     Pseudo is Ultrasoft + core correction, Zval = 15.0
     Generated by new atomic code, or converted to UPF format
     Using radial grid of  983 points,  7 beta functions with:
                l(1) =   0
                l(2) =   0
                l(3) =   1
                l(4) =   1
                l(5) =   1
                l(6) =   2
                l(7) =   2
     Q(r) pseudized with  8 coefficients,  rinner =    1.400   1.400   1.400
                                                       1.400   1.400

     PseudoPot. # 2 for H  read from file:
     /afs/slac.stanford.edu/u/if/mamunm/psp/gbrv1.5pbe/H.UPF
     MD5 check sum: 761ae9a214b05c3daf00ab9f6b793d6f
     Pseudo is Ultrasoft, Zval =  1.0
     Generated by new atomic code, or converted to UPF format
     Using radial grid of  615 points,  2 beta functions with:
                l(1) =   0
                l(2) =   0
     Q(r) pseudized with  8 coefficients,  rinner =    0.700

     vdW kernel table read from file vdW_kernel_table
     MD5 check sum: 095c7af220d748ca6e76c0b4c6cfb241

     atomic species   valence    mass     pseudopotential
        Ir1           15.00   192.21700     Ir( 1.00)
        H1             1.00     1.00800     H ( 1.00)

     No symmetry found

   Cartesian axes

     site n.     atom                  positions (alat units)
         1           Ir1 tau(   1) = (   1.3705410   0.7912822  10.0000000  )
         2           Ir1 tau(   2) = (   4.1116229   0.7912822  10.0000000  )
         3           Ir1 tau(   3) = (   2.7410819   3.1651288  10.0000000  )
         4           Ir1 tau(   4) = (   5.4821639   3.1651288  10.0000000  )
         5           Ir1 tau(   5) = (   5.4821639   1.5825644  12.2380840  )
         6           Ir1 tau(   6) = (   2.7410819   1.5825644  12.2380840  )
         7           Ir1 tau(   7) = (   6.8527049   3.9564110  12.2380840  )
         8           Ir1 tau(   8) = (   4.1116229   3.9564110  12.2380840  )
         9           Ir1 tau(   9) = (   0.0000000   0.0000000  14.4761681  )
        10           Ir1 tau(  10) = (   2.7410819   0.0000000  14.4761681  )
        11           Ir1 tau(  11) = (   1.3705410   2.3738466  14.4761681  )
        12           Ir1 tau(  12) = (   4.1116229   2.3738466  14.4761681  )
        13           H1  tau(  13) = (   1.3705410   0.7912822  16.1961681  )

     number of k points=    20  Fermi-Dirac smearing, width (Ry)=  0.0110
                       cart. coord. in units 2pi/alat
        k(    1) = (   0.0000000   0.0000000   0.0000000), wk =   0.0555556
        k(    2) = (   0.0000000   0.0351048   0.0000000), wk =   0.1111111
        k(    3) = (   0.0000000   0.0702095   0.0000000), wk =   0.1111111
        k(    4) = (   0.0000000  -0.1053143   0.0000000), wk =   0.0555556
        k(    5) = (   0.0304016  -0.0175524   0.0000000), wk =   0.1111111
        k(    6) = (   0.0304016   0.0175524   0.0000000), wk =   0.1111111
        k(    7) = (   0.0304016   0.0526572   0.0000000), wk =   0.1111111
        k(    8) = (   0.0304016  -0.1228667   0.0000000), wk =   0.1111111
        k(    9) = (   0.0304016  -0.0877619   0.0000000), wk =   0.1111111
        k(   10) = (   0.0304016  -0.0526572   0.0000000), wk =   0.1111111
        k(   11) = (   0.0608032  -0.0351048   0.0000000), wk =   0.1111111
        k(   12) = (   0.0608032   0.0000000   0.0000000), wk =   0.1111111
        k(   13) = (   0.0608032   0.0351048   0.0000000), wk =   0.1111111
        k(   14) = (   0.0608032  -0.1404191   0.0000000), wk =   0.1111111
        k(   15) = (   0.0608032  -0.1053143   0.0000000), wk =   0.1111111
        k(   16) = (   0.0608032  -0.0702095   0.0000000), wk =   0.1111111
        k(   17) = (  -0.0912049   0.0526572   0.0000000), wk =   0.0555556
        k(   18) = (  -0.0912049   0.0877619   0.0000000), wk =   0.1111111
        k(   19) = (  -0.0912049   0.1228667   0.0000000), wk =   0.1111111
        k(   20) = (  -0.0912049  -0.0526572   0.0000000), wk =   0.0555556

     Largest allocated arrays     est. size (Mb)     dimensions
     Largest temporary arrays     est. size (Mb)     dimensions

     Initial potential from superposition of free atoms
     Check: negative starting charge=   -4.361864

     starting charge  174.99961, renormalised to  181.00000

     negative rho (up, down):  4.511E+00 0.000E+00

     *
     * You are using vdW-DF for exchange-correlation in this calculation.
     * Please cite the following three references that made this development
     * possible:
     *
     *   M. Dion, H. Rydberg, E. Schroder, D. C. Langreth, and
     *   B. I. Lundqvist, Phys. Rev. Lett. 92, 246401 (2004).
     *
     *   T. Thonhauser, V. R. Cooper, S. Li, A. Puzder, P. Hyldgaard, and
     *   D. C. Langreth, Phys. Rev. B 76, 125112 (2007).
     *
     *   G. Roman-Perez and J. M. Soler, Phys. Rev. Lett. 103, 096102 (2009).
     *
     *
     * If you are using vdW-DF2, please also cite:
     *
     *   K. Lee, E. D. Murray, L. Kong, B. I. Lundqvist, and
     *   D. C. Langreth, Phys. Rev. B 82, 081101(R) (2010).
     *
     *
     * If you are calculating the stress with vdW-DF, please also cite:
     *
     *   R. Sabatini, E. Kucukbenli, B. Kolb, T. Thonhauser, and
     *   S. de Gironcoli, J. Phys.: Condens. Matter 24, 424209 (2012).
     *

     Carrying out vdW-DF run using the following parameters:

     Nqs =      20    Nr_points =    1024   r_max =   100.000
     q_mesh =
               0.00001000     0.04494208     0.09755937     0.15916263
               0.23128650     0.31572767     0.41458969     0.53033537
               0.66584808     0.82450364     1.01025438     1.22772762
               1.48234092     1.78043706     2.12944203     2.53805004
               3.01644009     3.57652955     4.23227104     5.00000000

     Gradients computed in reciprocal space

     Adding external electric field

     Computed dipole along edir(3) :
        Dipole               -0.2564 Ry au,         -0.6517 Debye
        Dipole field         -0.0007 Ry au

        Potential amp.        0.0676 Ry
        Total length         45.0969 bohr

     Starting wfc are  145 randomized atomic wfcs

     Self-consistent Calculation

     iteration #  1     ecut=    36.75 Ry     beta=0.30
     Davidson diagonalization with overlap
     ethr =  1.00E-02,  avg # of iterations =  2.2

[...]

     total energy              =   -2197.29274326 Ry
     Harris-Foulkes estimate   =   -2204.01079030 Ry
     estimated scf accuracy    <      15.75056934 Ry

[...]

     iteration # 16     ecut=    36.75 Ry     beta=0.30
     Davidson diagonalization with overlap
     c_bands:  1 eigenvalues not converged
     ethr =  1.32E-07,  avg # of iterations =  3.5

[...]

     End of self-consistent calculation

          k = 0.0000 0.0000 0.0000 ( 16073 PWs)   bands (ev):

   -47.6811 -47.6811 -47.6608 -47.5482 -47.4739 -47.4425 -47.4424 -47.2644
   -47.2644 -47.2583 -47.2114 -47.1695 -47.1695 -47.1273 -47.1273 -47.0976
   -47.0974 -47.0962 -46.8361 -46.8358 -46.8303 -46.8082 -46.7545 -46.7544
   -46.7472 -46.7429 -46.7427 -46.7376 -46.7090 -46.6955 -46.6948 -46.6863
   -46.6566 -46.6565 -46.6167 -46.6166  -7.0919  -5.2488  -4.8284  -4.5048
    -4.4927  -4.4927  -4.2088  -4.1984  -4.1984  -3.7779  -3.6901  -3.6901
    -3.4486  -3.4097  -3.4097  -2.1917  -1.9291  -1.9290  -1.4096  -1.3766
    -1.3766  -1.1892  -1.0568  -1.0354  -1.0354  -0.5827  -0.5826  -0.5278
    -0.5278  -0.5237  -0.3063  -0.2771  -0.2771   0.0234   0.0235   0.2149
     1.3081   1.3082   1.3183   1.3761   1.3762   1.3987   1.4133   1.4134
     2.1422   2.1422   2.2607   2.7158   2.7160   2.7749   2.8453   2.8456
     2.8457   3.0354   3.0354   3.3759   3.3760   3.3810   3.5012   3.6450
     3.6450   3.8445   3.8636   3.8636

[...]

          k =-0.0912 0.0527 0.0000 ( 16164 PWs)   bands (ev):

[...]

     the Fermi energy is     2.4250 ev

!    total energy              =   -2200.89668569 Ry
     Harris-Foulkes estimate   =   -2200.89669121 Ry
     estimated scf accuracy    <       0.00000730 Ry

     The total energy is the sum of the following terms:

     one-electron contribution =  -18450.77124360 Ry
     hartree contribution      =    9255.07203005 Ry
     xc contribution           =    -624.19695460 Ry
     ewald contribution        =    7619.10023947 Ry
     electric field correction =       0.00000042 Ry
     smearing contrib. (-TS)   =      -0.10075743 Ry

     convergence has been achieved in  16 iterations

 BEEF-vdW xc energy contributions
           1 :   -552.924632893166
           2 :    514.450456620289
           3 :   -445.605358735452
           4 :    359.879203633885
           5 :   -272.158033682924
           6 :    194.870186719269
           7 :   -135.333026493337
           8 :    94.9237069547360
           9 :   -70.1126744991818
          10 :    54.7724000742828
          11 :   -42.8122442772025
          12 :    30.1996351810158
          13 :   -15.7974086244526
          14 :   0.959982250034841
          15 :    11.7177344473118
          16 :   -19.8855419793857
[...]
00031 suncat0247 pw.x -in pw.inp   Done                     01/13/2018 23:40:12

     Program PWSCF v.5.1rc2 (svn rev. 11289) starts on 13Jan2018 at 23:40:18

[...]

     Total force =     0.208783     Total SCF correction =     0.010144

[...]

   This run was terminated on:   0: 0:41  14Jan2018

[...]

     Program PWSCF v.5.1rc2 (svn rev. 11289) starts on 14Jan2018 at  0: 0:47

[...]

   This run was terminated on:   0:11: 3  14Jan2018

[...]

     Program PWSCF v.5.1rc2 (svn rev. 11289) starts on 14Jan2018 at  0:11: 9

[...]

     Total force =     0.044977     Total SCF correction =     0.002938

[...]

   This run was terminated on:   0:51:28  14Jan2018

[...]

     Program PWSCF v.5.1rc2 (svn rev. 11289) starts on 14Jan2018 at  0:51:34

     Current dimensions of program PWSCF are:
     Max number of different atomic species (ntypx) = 10
     Max number of k-points (npk) =  40000
     Max angular momentum in pseudopotentials (lmaxx) =  3
     Presently stress not available with electric field

     IMPORTANT: XC functional enforced from input :
     Exchange-correlation      = BEEF-VDW ( 1  4 27 13 2)
     Any further DFT definition will be discarded
     Please, verify this is what you really want

     Subspace diagonalization in iterative solution of the eigenvalue problem:
     a serial algorithm will be used

     bravais-lattice index     =            0
     lattice parameter (alat)  =       1.8897  a.u.
     unit-cell volume          =    4299.0717 (a.u.)^3
     number of atoms/cell      =           13
     number of atomic types    =            2
     number of electrons       =       181.00
     number of Kohn-Sham states=          100
     kinetic-energy cutoff     =      36.7493  Ry
     charge density cutoff     =     367.4932  Ry
     convergence threshold     =      1.0E-05
     mixing beta               =       0.3000
     number of iterations used =           10  plain     mixing
     Exchange-correlation      = BEEF-VDW ( 1  4 27 13 2)
     nstep                     =           50

     celldm(1)=   1.889726  celldm(2)=   0.000000  celldm(3)=   0.000000
     celldm(4)=   0.000000  celldm(5)=   0.000000  celldm(6)=   0.000000

     crystal axes: (cart. coord. in units of alat)
               a(1) = (   5.482164   0.000000   0.000000 )
               a(2) = (   2.741082   4.747693   0.000000 )
               a(3) = (   0.000000   0.000000  24.476168 )

     reciprocal axes: (cart. coord. in units 2 pi/alat)
               b(1) = (  0.182410 -0.105314  0.000000 )
               b(2) = (  0.000000  0.210629  0.000000 )
               b(3) = (  0.000000  0.000000  0.040856 )

     PseudoPot. # 1 for Ir read from file:
     /afs/slac.stanford.edu/u/if/mamunm/psp/gbrv1.5pbe/Ir.UPF
     MD5 check sum: 8836f839c3459d2b385c504ce6d91f2c
     Pseudo is Ultrasoft + core correction, Zval = 15.0
     Generated by new atomic code, or converted to UPF format
     Using radial grid of  983 points,  7 beta functions with:
                l(1) =   0
                l(2) =   0
                l(3) =   1
                l(4) =   1
                l(5) =   1
                l(6) =   2
                l(7) =   2
     Q(r) pseudized with  8 coefficients,  rinner =    1.400   1.400   1.400
                                                       1.400   1.400

     PseudoPot. # 2 for H  read from file:
     /afs/slac.stanford.edu/u/if/mamunm/psp/gbrv1.5pbe/H.UPF
     MD5 check sum: 761ae9a214b05c3daf00ab9f6b793d6f
     Pseudo is Ultrasoft, Zval =  1.0
     Generated by new atomic code, or converted to UPF format
     Using radial grid of  615 points,  2 beta functions with:
                l(1) =   0
                l(2) =   0
     Q(r) pseudized with  8 coefficients,  rinner =    0.700

     vdW kernel table read from file vdW_kernel_table
     MD5 check sum: 095c7af220d748ca6e76c0b4c6cfb241

     atomic species   valence    mass     pseudopotential
        Ir1           15.00   192.21700     Ir( 1.00)
        H1             1.00     1.00800     H ( 1.00)

     No symmetry found

   Cartesian axes

     site n.     atom                  positions (alat units)
         1           Ir1 tau(   1) = (   1.3705410   0.7912822  10.0000000  )
         2           Ir1 tau(   2) = (   4.1116229   0.7912822  10.0000000  )
         3           Ir1 tau(   3) = (   2.7410819   3.1651288  10.0000000  )
         4           Ir1 tau(   4) = (   5.4821639   3.1651288  10.0000000  )
         5           Ir1 tau(   5) = (   5.4821639   1.5825644  12.2380840  )
         6           Ir1 tau(   6) = (   2.7410819   1.5825644  12.2380840  )
         7           Ir1 tau(   7) = (   6.8527049   3.9564110  12.2380840  )
         8           Ir1 tau(   8) = (   4.1116229   3.9564110  12.2380840  )
         9           Ir1 tau(   9) = (   8.2010504   4.7348196  14.4409997  )
        10           Ir1 tau(  10) = (   5.5043785   4.7348082  14.4409705  )
        11           Ir1 tau(  11) = (   6.8526995   2.3994906  14.4410217  )
        12           Ir1 tau(  12) = (   4.1116067   2.3738472  14.4159855  )
        13           H1  tau(  13) = (   1.3706581   0.7914986  15.4687348  )

     number of k points=    20  Fermi-Dirac smearing, width (Ry)=  0.0110
                       cart. coord. in units 2pi/alat
        k(    1) = (   0.0000000   0.0000000   0.0000000), wk =   0.0555556
        k(    2) = (   0.0000000   0.0351048   0.0000000), wk =   0.1111111
        k(    3) = (   0.0000000   0.0702095   0.0000000), wk =   0.1111111
        k(    4) = (   0.0000000  -0.1053143   0.0000000), wk =   0.0555556
        k(    5) = (   0.0304016  -0.0175524   0.0000000), wk =   0.1111111
        k(    6) = (   0.0304016   0.0175524   0.0000000), wk =   0.1111111
        k(    7) = (   0.0304016   0.0526572   0.0000000), wk =   0.1111111
        k(    8) = (   0.0304016  -0.1228667   0.0000000), wk =   0.1111111
        k(    9) = (   0.0304016  -0.0877619   0.0000000), wk =   0.1111111
        k(   10) = (   0.0304016  -0.0526572   0.0000000), wk =   0.1111111
        k(   11) = (   0.0608032  -0.0351048   0.0000000), wk =   0.1111111
        k(   12) = (   0.0608032   0.0000000   0.0000000), wk =   0.1111111
        k(   13) = (   0.0608032   0.0351048   0.0000000), wk =   0.1111111
        k(   14) = (   0.0608032  -0.1404191   0.0000000), wk =   0.1111111
        k(   15) = (   0.0608032  -0.1053143   0.0000000), wk =   0.1111111
        k(   16) = (   0.0608032  -0.0702095   0.0000000), wk =   0.1111111
        k(   17) = (  -0.0912049   0.0526572   0.0000000), wk =   0.0555556
        k(   18) = (  -0.0912049   0.0877619   0.0000000), wk =   0.1111111
        k(   19) = (  -0.0912049   0.1228667   0.0000000), wk =   0.1111111
        k(   20) = (  -0.0912049  -0.0526572   0.0000000), wk =   0.0555556

     Largest allocated arrays     est. size (Mb)     dimensions
     Largest temporary arrays     est. size (Mb)     dimensions

     Initial potential from superposition of free atoms
     Check: negative starting charge=   -4.365669

     starting charge  174.99961, renormalised to  181.00000

[...]

     *
     * You are using vdW-DF for exchange-correlation in this calculation.
     * Please cite the following three references that made this development
     * possible:
     *
     *   M. Dion, H. Rydberg, E. Schroder, D. C. Langreth, and
     *   B. I. Lundqvist, Phys. Rev. Lett. 92, 246401 (2004).
     *
     *   T. Thonhauser, V. R. Cooper, S. Li, A. Puzder, P. Hyldgaard, and
     *   D. C. Langreth, Phys. Rev. B 76, 125112 (2007).
     *
     *   G. Roman-Perez and J. M. Soler, Phys. Rev. Lett. 103, 096102 (2009).
     *
     *
     * If you are using vdW-DF2, please also cite:
     *
     *   K. Lee, E. D. Murray, L. Kong, B. I. Lundqvist, and
     *   D. C. Langreth, Phys. Rev. B 82, 081101(R) (2010).
     *
     *
     * If you are calculating the stress with vdW-DF, please also cite:
     *
     *   R. Sabatini, E. Kucukbenli, B. Kolb, T. Thonhauser, and
     *   S. de Gironcoli, J. Phys.: Condens. Matter 24, 424209 (2012).
     *

     Carrying out vdW-DF run using the following parameters:

     Nqs =      20    Nr_points =    1024   r_max =   100.000
     q_mesh =
               0.00001000     0.04494208     0.09755937     0.15916263
               0.23128650     0.31572767     0.41458969     0.53033537
               0.66584808     0.82450364     1.01025438     1.22772762
               1.48234092     1.78043706     2.12944203     2.53805004
               3.01644009     3.57652955     4.23227104     5.00000000

     Gradients computed in reciprocal space

[...]

     Starting wfc are  145 randomized atomic wfcs

     Self-consistent Calculation

[...]

     total energy              =   -2200.95927579 Ry
     Harris-Foulkes estimate   =   -2200.95928086 Ry
     estimated scf accuracy    <       0.00009140 Ry

     iteration # 16     ecut=    36.75 Ry     beta=0.30
     Davidson diagonalization with overlap
     ethr =  5.05E-08,  avg # of iterations =  2.7

[...]

     negative rho (up, down):  3.885E+00 0.000E+00

     Adding external electric field

     Computed dipole along edir(3) :
        Dipole                0.0212 Ry au,          0.0538 Debye
        Dipole field          0.0001 Ry au

        Potential amp.       -0.0056 Ry
        Total length         45.0969 bohr

     End of self-consistent calculation

[...]

          k = 0.0608-0.0702 0.0000 ( 16191 PWs)   bands (ev):

[...]

          k =-0.0912-0.0527 0.0000 ( 16164 PWs)   bands (ev):

   -47.5557 -47.5481 -47.4815 -47.4729 -47.4374 -47.4266 -47.3902 -47.3837
   -47.3518 -47.3450 -47.1735 -47.1667 -47.1535 -47.0593 -47.0205 -46.9780
   -46.9779 -46.9471 -46.9388 -46.8551 -46.8365 -46.8319 -46.8182 -46.7963
   -46.7959 -46.7859 -46.7693 -46.7403 -46.7359 -46.7062 -46.6726 -46.6697
   -46.6575 -46.6535 -46.6346 -46.6343  -5.5276  -5.2348  -4.6826  -3.7707
    -3.5019  -3.4562  -3.4553  -3.3735  -3.3557  -3.3532  -3.0396  -2.8012
    -2.7974  -2.4604  -2.3488  -2.2987  -2.2691  -1.9659  -1.9479  -1.9291
    -1.8910  -1.5256  -1.5121  -1.0755  -1.0176  -0.7367  -0.7018  -0.6906
    -0.6519  -0.5924  -0.4918  -0.3424  -0.2890  -0.2855  -0.2528  -0.2375
    -0.2027  -0.1642  -0.1258  -0.1014   0.5714   0.5911   0.7399   0.8239
     0.9459   0.9489   1.1641   1.2088   1.3410   1.4633   1.6124   1.6213
     1.7161   2.0039   2.0176   2.0510   2.1314   2.1709   2.8009   2.8467
     3.1259   3.1932   3.4557   3.4804

     the Fermi energy is     2.4704 ev

!    total energy              =   -2200.95927806 Ry
     Harris-Foulkes estimate   =   -2200.95928126 Ry
     estimated scf accuracy    <       0.00000260 Ry

     The total energy is the sum of the following terms:

     one-electron contribution =  -18605.07723682 Ry
     hartree contribution      =    9332.33558513 Ry
     xc contribution           =    -624.47093516 Ry
     ewald contribution        =    7696.35174763 Ry
     electric field correction =       0.00000131 Ry
     smearing contrib. (-TS)   =      -0.09844016 Ry

     convergence has been achieved in  16 iterations

 BEEF-vdW xc energy contributions
           1 :   -553.203251975003
           2 :    514.816429074868
           3 :   -446.082954970705
           4 :    360.410570104882
           5 :   -272.629406361877
           6 :    195.166133914841
           7 :   -135.395109385103
           8 :    94.7832319209521
           9 :   -69.8798831941110
          10 :    54.5868654658235
          11 :   -42.7793196288911
          12 :    30.3440573131026
          13 :   -16.0560088525001
          14 :    1.21564022783195
          15 :    11.5787375417721
          16 :   -19.9210321176492
          17 :    22.7471858958293
          18 :   -20.7578298281045
          19 :    16.0522984664474
          20 :   -11.2296780181714
          21 :    8.37838079764845
          22 :   -8.36393906410763
          23 :    10.6639802595976
          24 :   -13.7687644851767
          25 :    15.9360416226380
          26 :   -15.9655524312376
          27 :    13.6725909639513
          28 :   -9.89030740049611
          29 :    6.03821825390742
          30 :   -3.47430216976545
          31 :   -47.3662806515576
          32 :   -35.5396600996424

     Forces acting on atoms (Ry/au):

     negative rho (up, down):  3.885E+00 0.000E+00
     atom    1 type  1   force =     0.00000131   -0.00000248    0.01656527
     atom    2 type  1   force =    -0.00000639    0.00051836    0.01560954
     atom    3 type  1   force =     0.00045502   -0.00026748    0.01567795
     atom    4 type  1   force =    -0.00045728   -0.00025355    0.01563270
     atom    5 type  1   force =    -0.00007409    0.00003874   -0.01680503
     atom    6 type  1   force =     0.00007507    0.00006871   -0.01683283
     atom    7 type  1   force =     0.00002916   -0.00001557   -0.01034582
     atom    8 type  1   force =    -0.00002137   -0.00010187   -0.01684321
     atom    9 type  1   force =     0.00008279    0.00006484   -0.00039785
     atom   10 type  1   force =    -0.00009075    0.00007155   -0.00027407
     atom   11 type  1   force =     0.00000804   -0.00010758   -0.00039278
     atom   12 type  1   force =     0.00000243   -0.00000448   -0.00118594
     atom   13 type  2   force =    -0.00000393   -0.00000920   -0.00040792

     Total force =     0.044357     Total SCF correction =     0.011800
     SCF correction compared to forces is large: reduce conv_thr to get better values

     entering subroutine stress ...

     negative rho (up, down):  3.885E+00 0.000E+00
          total   stress  (Ry/bohr**3)                   (kbar)     P=  -26.38
  -0.00021327  -0.00000000  -0.00000001        -31.37     -0.00     -0.00
  -0.00000000  -0.00021328  -0.00000000         -0.00    -31.38     -0.00
  -0.00000001  -0.00000000  -0.00011140         -0.00     -0.00    -16.39

 !ASE

     Writing output data file calc.save

     General routines

     Parallel routines

   This run was terminated on:   1: 1:35  14Jan2018

   JOB DONE.
Job  /afs/slac/g/suncat/bin/suncat-tsmpirun -x LD_LIBRARY_PATH -wdir /scratch/qe842452_5UsLZ pw.x -in pw.inp

TID   HOST_NAME   COMMAND_LINE            STATUS            TERMINATION_TIME
00000 suncat0253 pw.x -in pw.inp   Done                     01/14/2018 01:01:35
00001 suncat0253 pw.x -in pw.inp   Done                     01/14/2018 01:01:35
00002 suncat0253 pw.x -in pw.inp   Done                     01/14/2018 01:01:35
00003 suncat0253 pw.x -in pw.inp   Done                     01/14/2018 01:01:35
00004 suncat0253 pw.x -in pw.inp   Done                     01/14/2018 01:01:35
00005 suncat0253 pw.x -in pw.inp   Done                     01/14/2018 01:01:35
00006 suncat0253 pw.x -in pw.inp   Done                     01/14/2018 01:01:35
00007 suncat0253 pw.x -in pw.inp   Done                     01/14/2018 01:01:35
00008 suncat0249 pw.x -in pw.inp   Done                     01/14/2018 01:01:35
00009 suncat0249 pw.x -in pw.inp   Done                     01/14/2018 01:01:35
00010 suncat0249 pw.x -in pw.inp   Done                     01/14/2018 01:01:35
00011 suncat0249 pw.x -in pw.inp   Done                     01/14/2018 01:01:35
00012 suncat0249 pw.x -in pw.inp   Done                     01/14/2018 01:01:35
00013 suncat0249 pw.x -in pw.inp   Done                     01/14/2018 01:01:35
00014 suncat0249 pw.x -in pw.inp   Done                     01/14/2018 01:01:35
00015 suncat0249 pw.x -in pw.inp   Done                     01/14/2018 01:01:35
00016 suncat0248 pw.x -in pw.inp   Done                     01/14/2018 01:01:35
00017 suncat0248 pw.x -in pw.inp   Done                     01/14/2018 01:01:35
00018 suncat0248 pw.x -in pw.inp   Done                     01/14/2018 01:01:35
00019 suncat0248 pw.x -in pw.inp   Done                     01/14/2018 01:01:35
00020 suncat0248 pw.x -in pw.inp   Done                     01/14/2018 01:01:35
00021 suncat0248 pw.x -in pw.inp   Done                     01/14/2018 01:01:35
00022 suncat0248 pw.x -in pw.inp   Done                     01/14/2018 01:01:35
00023 suncat0248 pw.x -in pw.inp   Done                     01/14/2018 01:01:35
00024 suncat0247 pw.x -in pw.inp   Done                     01/14/2018 01:01:35
00025 suncat0247 pw.x -in pw.inp   Done                     01/14/2018 01:01:35
00026 suncat0247 pw.x -in pw.inp   Done                     01/14/2018 01:01:35
00027 suncat0247 pw.x -in pw.inp   Done                     01/14/2018 01:01:35
00028 suncat0247 pw.x -in pw.inp   Done                     01/14/2018 01:01:35
00029 suncat0247 pw.x -in pw.inp   Done                     01/14/2018 01:01:35
00030 suncat0247 pw.x -in pw.inp   Done                     01/14/2018 01:01:35
00031 suncat0247 pw.x -in pw.inp   Done                     01/14/2018 01:01:35