     Program PWSCF v.5.1rc2 (svn rev. 11289) starts on  2May2018 at 12:31:11

     Current dimensions of program PWSCF are:
     Max number of different atomic species (ntypx) = 10
     Max number of k-points (npk) =  40000
     Max angular momentum in pseudopotentials (lmaxx) =  3
     Presently stress not available with electric field

     IMPORTANT: XC functional enforced from input :
     Exchange-correlation      = BEEF-VDW ( 1  4 27 13 2)
     Any further DFT definition will be discarded
     Please, verify this is what you really want

     Subspace diagonalization in iterative solution of the eigenvalue problem:
     a serial algorithm will be used

     bravais-lattice index     =            0
     lattice parameter (alat)  =       1.8897  a.u.
     unit-cell volume          =    3807.2308 (a.u.)^3
     number of atoms/cell      =           13
     number of atomic types    =            2
     number of electrons       =       234.00
     number of Kohn-Sham states=          127
     kinetic-energy cutoff     =      36.7493  Ry
     charge density cutoff     =     367.4932  Ry
     convergence threshold     =      1.0E-05
     mixing beta               =       0.3000
     number of iterations used =           10  plain     mixing
     Exchange-correlation      = BEEF-VDW ( 1  4 27 13 2)
     nstep                     =           50

     celldm(1)=   1.889726  celldm(2)=   0.000000  celldm(3)=   0.000000
     celldm(4)=   0.000000  celldm(5)=   0.000000  celldm(6)=   0.000000

     crystal axes: (cart. coord. in units of alat)
               a(1) = (   5.184823   0.000000   0.000000 )
               a(2) = (   2.592411   4.490188   0.000000 )
               a(3) = (   0.000000   0.000000  24.233390 )

     reciprocal axes: (cart. coord. in units 2 pi/alat)
               b(1) = (  0.192871 -0.111354  0.000000 )
               b(2) = (  0.000000  0.222708  0.000000 )
               b(3) = (  0.000000  0.000000  0.041265 )

     PseudoPot. # 1 for Cu read from file:
     /u/if/mamunm/psp/gbrv1.5pbe/Cu.UPF
     MD5 check sum: 6e991ff952a84172a2a52a1c1e996048
     Pseudo is Ultrasoft + core correction, Zval = 19.0
     Generated by new atomic code, or converted to UPF format
     Using radial grid of  867 points,  6 beta functions with:
                l(1) =   0
                l(2) =   0
                l(3) =   1
                l(4) =   1
                l(5) =   2
                l(6) =   2
     Q(r) pseudized with  8 coefficients,  rinner =    1.150   1.150   1.150
                                                       1.150   1.150

     PseudoPot. # 2 for S  read from file:
     /u/if/mamunm/psp/gbrv1.5pbe/S.UPF
     MD5 check sum: 88d86576ff6df21479756cfb9bdac1df
     Pseudo is Ultrasoft + core correction, Zval =  6.0
     Generated by new atomic code, or converted to UPF format
     Using radial grid of  907 points,  6 beta functions with:
                l(1) =   0
                l(2) =   0
                l(3) =   1
                l(4) =   1
                l(5) =   2
                l(6) =   2
     Q(r) pseudized with  8 coefficients,  rinner =    1.300   1.300   1.300
                                                       1.300   1.300

     vdW kernel table read from file vdW_kernel_table
     MD5 check sum: 095c7af220d748ca6e76c0b4c6cfb241

     atomic species   valence    mass     pseudopotential
        Cu1           19.00    63.54600     Cu( 1.00)
        S1             6.00    32.06000     S ( 1.00)

     No symmetry found

   Cartesian axes

     site n.     atom                  positions (alat units)
         1           Cu1 tau(   1) = (   1.2962057   0.7483647  10.0000000  )
         2           Cu1 tau(   2) = (   3.8886170   0.7483647  10.0000000  )
         3           Cu1 tau(   3) = (   2.5924113   2.9934587  10.0000000  )
         4           Cu1 tau(   4) = (   5.1848226   2.9934587  10.0000000  )
         5           Cu1 tau(   5) = (   5.1848226   1.4967294  12.1166950  )
         6           Cu1 tau(   6) = (   2.5924113   1.4967294  12.1166950  )
         7           Cu1 tau(   7) = (   6.4810283   3.7418234  12.1166950  )
         8           Cu1 tau(   8) = (   3.8886170   3.7418234  12.1166950  )
         9           Cu1 tau(   9) = (   0.0000000   0.0000000  14.2333899  )
        10           Cu1 tau(  10) = (   2.5924113   0.0000000  14.2333899  )
        11           Cu1 tau(  11) = (   1.2962057   2.2450940  14.2333899  )
        12           Cu1 tau(  12) = (   3.8886170   2.2450940  14.2333899  )
        13           S1  tau(  13) = (   0.0000000   0.0000000  16.2478899  )

     number of k points=    20  Fermi-Dirac smearing, width (Ry)=  0.0110
                       cart. coord. in units 2pi/alat
        k(    1) = (   0.0000000   0.0000000   0.0000000), wk =   0.0555556
        k(    2) = (   0.0000000   0.0371180   0.0000000), wk =   0.1111111
        k(    3) = (   0.0000000   0.0742359   0.0000000), wk =   0.1111111
        k(    4) = (   0.0000000  -0.1113539   0.0000000), wk =   0.0555556
        k(    5) = (   0.0321451  -0.0185590   0.0000000), wk =   0.1111111
        k(    6) = (   0.0321451   0.0185590   0.0000000), wk =   0.1111111
        k(    7) = (   0.0321451   0.0556770   0.0000000), wk =   0.1111111
        k(    8) = (   0.0321451  -0.1299129   0.0000000), wk =   0.1111111
        k(    9) = (   0.0321451  -0.0927949   0.0000000), wk =   0.1111111
        k(   10) = (   0.0321451  -0.0556770   0.0000000), wk =   0.1111111
        k(   11) = (   0.0642902  -0.0371180   0.0000000), wk =   0.1111111
        k(   12) = (   0.0642902  -0.0000000   0.0000000), wk =   0.1111111
        k(   13) = (   0.0642902   0.0371180   0.0000000), wk =   0.1111111
        k(   14) = (   0.0642902  -0.1484719   0.0000000), wk =   0.1111111
        k(   15) = (   0.0642902  -0.1113539   0.0000000), wk =   0.1111111
        k(   16) = (   0.0642902  -0.0742359   0.0000000), wk =   0.1111111
        k(   17) = (  -0.0964353   0.0556770   0.0000000), wk =   0.0555556
        k(   18) = (  -0.0964353   0.0927949   0.0000000), wk =   0.1111111
        k(   19) = (  -0.0964353   0.1299129   0.0000000), wk =   0.1111111
        k(   20) = (  -0.0964353  -0.0556770   0.0000000), wk =   0.0555556

     Largest allocated arrays     est. size (Mb)     dimensions
     Largest temporary arrays     est. size (Mb)     dimensions

     Initial potential from superposition of free atoms
     Check: negative starting charge=   -0.000103

     starting charge  221.99994, renormalised to  234.00000

     negative rho (up, down):  1.081E-04 0.000E+00

     *
     * You are using vdW-DF for exchange-correlation in this calculation.
     * Please cite the following three references that made this development
     * possible:
     *
     *   M. Dion, H. Rydberg, E. Schroder, D. C. Langreth, and
     *   B. I. Lundqvist, Phys. Rev. Lett. 92, 246401 (2004).
     *
     *   T. Thonhauser, V. R. Cooper, S. Li, A. Puzder, P. Hyldgaard, and
     *   D. C. Langreth, Phys. Rev. B 76, 125112 (2007).
     *
     *   G. Roman-Perez and J. M. Soler, Phys. Rev. Lett. 103, 096102 (2009).
     *
     *
     * If you are using vdW-DF2, please also cite:
     *
     *   K. Lee, E. D. Murray, L. Kong, B. I. Lundqvist, and
     *   D. C. Langreth, Phys. Rev. B 82, 081101(R) (2010).
     *
     *
     * If you are calculating the stress with vdW-DF, please also cite:
     *
     *   R. Sabatini, E. Kucukbenli, B. Kolb, T. Thonhauser, and
     *   S. de Gironcoli, J. Phys.: Condens. Matter 24, 424209 (2012).
     *

     Carrying out vdW-DF run using the following parameters:

     Nqs =      20    Nr_points =    1024   r_max =   100.000
     q_mesh =
               0.00001000     0.04494208     0.09755937     0.15916263
               0.23128650     0.31572767     0.41458969     0.53033537
               0.66584808     0.82450364     1.01025438     1.22772762
               1.48234092     1.78043706     2.12944203     2.53805004
               3.01644009     3.57652955     4.23227104     5.00000000

     Gradients computed in reciprocal space

     Adding external electric field

     Computed dipole along edir(3) :
        Dipole               -2.5317 Ry au,         -6.4348 Debye
        Dipole field         -0.0084 Ry au

        Potential amp.        0.7462 Ry
        Total length         44.6496 bohr

     Starting wfc are  160 randomized atomic wfcs

     Self-consistent Calculation

     iteration #  1     ecut=    36.75 Ry     beta=0.30
     Davidson diagonalization with overlap
     ethr =  1.00E-02,  avg # of iterations =  8.2

[...]

     total energy              =   -4554.72155609 Ry
     Harris-Foulkes estimate   =   -4881.82363038 Ry
     estimated scf accuracy    <     688.05889429 Ry

     iteration #  2     ecut=    36.75 Ry     beta=0.30
     Davidson diagonalization with overlap
     c_bands:  2 eigenvalues not converged
     ethr =  1.00E-02,  avg # of iterations = 19.4

[...]

     End of self-consistent calculation

          k = 0.0000 0.0000 0.0000 ( 14321 PWs)   bands (ev):

  -112.9335-112.4414-112.4355-112.4353-112.4145-112.1914-112.1848-112.1837
  -112.1829-112.0700-112.0645-112.0643 -70.4699 -70.2421 -70.2421 -69.8761
   -69.8645 -69.8644 -69.8328 -69.8273 -69.8272 -69.8187 -69.8175 -69.8144
   -69.8142 -69.7904 -69.7904 -69.6429 -69.6423 -69.6417 -69.5935 -69.5908
   -69.5902 -69.5739 -69.5739 -69.5562 -69.5446 -69.5387 -69.5369 -69.5358
   -69.5088 -69.5087 -69.4659 -69.4658 -69.4519 -69.4313 -69.4259 -69.4257
   -11.7615  -8.0738  -6.1584  -4.8032  -4.4301  -4.4153  -4.4152  -4.2358
    -4.2357  -4.2164  -3.9257  -3.9257  -3.9212  -3.8432  -3.8430  -3.7780
    -3.5920  -3.5357  -3.5355  -3.1034  -2.9167  -2.9166  -2.8135  -2.7693
    -2.7412  -2.7412  -2.6279  -2.6278  -2.5707  -2.5707  -2.5475  -2.5320
    -2.4771  -2.4771  -2.3688  -2.3686  -2.2163  -2.2163  -1.9797  -1.9796
    -1.9685  -1.9356  -1.9356  -1.8685  -1.8614  -1.7056  -1.7053  -1.5795
    -1.5792  -1.5257  -1.4839  -1.4838  -1.4744  -1.4742  -1.4447  -1.4446
    -1.4408  -1.3613  -1.3423  -1.3422  -1.2510  -1.2505  -1.2500  -1.1596
    -0.9515  -0.9515  -0.3592   0.2915   0.5414   0.5414   1.3491   1.5401
     1.5401   1.5598   1.7530   2.1657   2.1657   4.1978   4.4674

[...]

          k =-0.0964 0.0557 0.0000 ( 14294 PWs)   bands (ev):

[...]

     the Fermi energy is     0.1734 ev

!    total energy              =   -4883.63323674 Ry
     Harris-Foulkes estimate   =   -4883.63322760 Ry
     estimated scf accuracy    <       0.00000177 Ry

     The total energy is the sum of the following terms:

     one-electron contribution =  -37629.86251803 Ry
     hartree contribution      =   18829.42372454 Ry
     xc contribution           =    -488.77001766 Ry
     ewald contribution        =   14405.60562803 Ry
     electric field correction =       0.00034688 Ry
     smearing contrib. (-TS)   =      -0.03040049 Ry

     convergence has been achieved in  30 iterations

 BEEF-vdW xc energy contributions
           1 :   -432.903835419277
           2 :    392.236591491980
           3 :   -323.367077211137
           4 :    245.256102883922
           5 :   -175.148405611340
           6 :    122.421013610882
           7 :   -87.1300450094408
           8 :    63.1827642651688
           9 :   -43.6509985982033
          10 :    24.9510056069124
          11 :   -7.81916425501873
          12 :   -4.75970997945444
          13 :    10.7020074330661
          14 :   -10.7708938324743
          15 :    8.19857428040740
          16 :   -6.57635379630386
          17 :    7.66988949944869
          18 :   -10.6565073181427
          19 :    13.1498043813221
          20 :   -13.1401905742849
          21 :    10.4485455789177
          22 :   -6.75297204727252
          23 :    4.30017572093021
          24 :   -4.30748410836298
          25 :    6.19016163732289
          26 :   -8.09481760917737
          27 :    8.28328708691487
          28 :   -6.35309255436289
          29 :    3.45205370064622
          30 :   -1.39040097855900
          31 :   -34.7442113998688
          32 :   -23.7214937618087

     Forces acting on atoms (Ry/au):

     negative rho (up, down):  9.841E-04 0.000E+00
     atom    1 type  1   force =    -0.00035858   -0.00022495    0.00225399
     atom    2 type  1   force =     0.00036596   -0.00023571    0.00259008
     atom    3 type  1   force =    -0.00000596    0.00042636    0.00296829
     atom    4 type  1   force =     0.00001534    0.00001910    0.00242986
     atom    5 type  1   force =    -0.00014763    0.00059234    0.00077613
     atom    6 type  1   force =     0.00014026    0.00000495    0.00175323
     atom    7 type  1   force =    -0.00050210   -0.00020782    0.00065432
     atom    8 type  1   force =     0.00048078   -0.00037509    0.00082944
     atom    9 type  1   force =     0.00000925   -0.00000517   -0.05821272
     atom   10 type  1   force =    -0.00000112   -0.00064938    0.00326890
     atom   11 type  1   force =    -0.00055584    0.00032601    0.00329643
     atom   12 type  1   force =     0.00055661    0.00033019    0.00331175
     atom   13 type  2   force =     0.00000302   -0.00000085    0.03408030

     Total force =     0.067705     Total SCF correction =     0.003766

     entering subroutine stress ...

     negative rho (up, down):  9.841E-04 0.000E+00
          total   stress  (Ry/bohr**3)                   (kbar)     P=  -21.88
  -0.00018219   0.00000000  -0.00000000        -26.80      0.00     -0.00
   0.00000000  -0.00018220   0.00000000          0.00    -26.80      0.00
  -0.00000000   0.00000000  -0.00008177         -0.00      0.00    -12.03

     BFGS Geometry Optimization

     number of scf cycles    =   1
     number of bfgs steps    =   0

     energy   new            =   -4883.6332367373 Ry

     new trust radius        =       0.0582127171 bohr
     new conv_thr            =       0.0000099958 Ry

ATOMIC_POSITIONS (crystal)
Cu1      0.166666667   0.166666667   0.412653782    0   0   0
Cu1      0.666666667   0.166666667   0.412653782    0   0   0
Cu1      0.166666667   0.666666667   0.412653782    0   0   0
Cu1      0.666666667   0.666666667   0.412653782    0   0   0
Cu1      0.833333333   0.333333333   0.500000000    0   0   0
Cu1      0.333333333   0.333333333   0.500000000    0   0   0
Cu1      0.833333333   0.833333333   0.500000000    0   0   0
Cu1      0.333333333   0.833333333   0.500000000    0   0   0
Cu1      0.000001248  -0.000000609   0.586075045
Cu1      0.500038151  -0.000076531   0.587417600
Cu1     -0.000075941   0.500038421   0.587418201
Cu1      0.500037352   0.500038914   0.587418536
S1       0.000000359  -0.000000100   0.671219524

     Writing output data file calc.save
     Check: negative starting charge=   -0.000103
     NEW-OLD atomic charge density approx. for the potential
     Check: negative starting charge=   -0.000103

[...]

     energy   old            =   -4883.6332367373 Ry
     energy   new            =   -4883.6362803761 Ry

     CASE: energy  _new < energy  _old

[...]

     Total force =     0.014397     Total SCF correction =     0.001094

[...]

     Total force =     0.003966     Total SCF correction =     0.000920
     SCF correction compared to forces is large: reduce conv_thr to get better values

[...]

     number of scf cycles    =   8
     number of bfgs steps    =   7

     energy   old            =   -4883.6396627157 Ry
     energy   new            =   -4883.6398323628 Ry

     CASE: energy  _new < energy  _old

     new trust radius        =       0.0196461875 bohr
     new conv_thr            =       0.0000001000 Ry

ATOMIC_POSITIONS (crystal)
Cu1      0.166666667   0.166666667   0.412653782    0   0   0
Cu1      0.666666667   0.166666667   0.412653782    0   0   0
Cu1      0.166666667   0.666666667   0.412653782    0   0   0
Cu1      0.666666667   0.666666667   0.412653782    0   0   0
Cu1      0.833333333   0.333333333   0.500000000    0   0   0
Cu1      0.333333333   0.333333333   0.500000000    0   0   0
Cu1      0.833333333   0.833333333   0.500000000    0   0   0
Cu1      0.333333333   0.833333333   0.500000000    0   0   0
Cu1      0.000002145   0.000001682   0.581058724
Cu1      0.500346104  -0.000689049   0.589334533
Cu1     -0.000689264   0.500345826   0.589335974
Cu1      0.500347864   0.500346399   0.589336046
S1       0.000002757  -0.000000602   0.667110950

     Writing output data file calc.save
     Check: negative starting charge=   -0.000110
     NEW-OLD atomic charge density approx. for the potential
     Check: negative starting charge=   -0.000110

[...]

     Self-consistent Calculation

[...]

     total energy              =   -4883.63985922 Ry
     Harris-Foulkes estimate   =   -4883.63985955 Ry
     estimated scf accuracy    <       0.00000019 Ry

     iteration #  9     ecut=    36.75 Ry     beta=0.30
     Davidson diagonalization with overlap
     ethr =  8.06E-11,  avg # of iterations =  2.4

[...]

     negative rho (up, down):  1.022E-03 0.000E+00

     Adding external electric field

     Computed dipole along edir(3) :
        Dipole               -0.3021 Ry au,         -0.7678 Debye
        Dipole field         -0.0010 Ry au

        Potential amp.        0.0890 Ry
        Total length         44.6496 bohr

     End of self-consistent calculation

[...]

          k = 0.0643-0.0742 0.0000 ( 14299 PWs)   bands (ev):

[...]

          k =-0.0964-0.0557 0.0000 ( 14294 PWs)   bands (ev):

  -112.8269-112.4130-112.4112-112.4093-112.3609-112.1566-112.1514-112.1490
  -112.1477-112.0258-112.0239-112.0220 -70.3360 -70.1529 -70.1523 -69.8398
   -69.8216 -69.8144 -69.8126 -69.8102 -69.7993 -69.7982 -69.7954 -69.7823
   -69.7627 -69.7565 -69.7466 -69.5975 -69.5936 -69.5760 -69.5737 -69.5699
   -69.5687 -69.5504 -69.5466 -69.5136 -69.5026 -69.5006 -69.5002 -69.4991
   -69.4806 -69.4641 -69.4313 -69.4244 -69.4157 -69.3852 -69.3834 -69.3815
   -11.6499  -6.3097  -6.2621  -4.7518  -4.7245  -4.1782  -4.1066  -3.9668
    -3.8789  -3.8224  -3.7945  -3.6921  -3.5705  -3.5440  -3.4573  -3.3752
    -3.3612  -3.2628  -3.2350  -3.1529  -3.0595  -3.0455  -2.9969  -2.9435
    -2.9151  -2.8172  -2.7320  -2.6888  -2.6659  -2.5786  -2.5575  -2.5235
    -2.5103  -2.4654  -2.4490  -2.4139  -2.4128  -2.4025  -2.3674  -2.3634
    -2.3342  -2.2669  -2.1770  -2.1395  -2.0475  -2.0287  -1.9970  -1.9514
    -1.9432  -1.8776  -1.8577  -1.8534  -1.8141  -1.8081  -1.7375  -1.7170
    -1.6870  -1.6615  -1.6509  -1.4733  -1.4662  -1.4560  -1.4231  -1.3655
    -1.3500  -0.6976  -0.6094  -0.4950   0.1112   0.2905   1.0013   1.1093
     1.6703   1.9380   3.3874   3.6745   4.1834   4.9104   5.9943

     the Fermi energy is     0.2089 ev

!    total energy              =   -4883.63985925 Ry
     Harris-Foulkes estimate   =   -4883.63985899 Ry
     estimated scf accuracy    <       0.00000005 Ry

     The total energy is the sum of the following terms:

     one-electron contribution =  -37670.94557126 Ry
     hartree contribution      =   18850.27804943 Ry
     xc contribution           =    -488.77484213 Ry
     ewald contribution        =   14425.83225345 Ry
     electric field correction =       0.00030122 Ry
     smearing contrib. (-TS)   =      -0.03004996 Ry

     convergence has been achieved in   9 iterations

 BEEF-vdW xc energy contributions
           1 :   -432.907317081482
           2 :    392.241530068768
           3 :   -323.373306801195
           4 :    245.264989140453
           5 :   -175.163333758340
           6 :    122.441302040594
           7 :   -87.1465605630073
           8 :    63.1819874027704
           9 :   -43.6245542594777
          10 :    24.9022804247370
          11 :   -7.76163161205733
          12 :   -4.81113253914071
          13 :    10.7395367822706
          14 :   -10.7960015807640
          15 :    8.21692517837448
          16 :   -6.59054899486677
          17 :    7.67643007594262
          18 :   -10.6497866137893
          19 :    13.1289246685806
          20 :   -13.1120034266498
          21 :    10.4236875435049
          22 :   -6.73747502422049
          23 :    4.29019022763936
          24 :   -4.29206887923993
          25 :    6.16019325402095
          26 :   -8.05118588707217
          27 :    8.23792386605959
          28 :   -6.32161641631996
          29 :    3.44288792462947
          30 :   -1.39861549484880
          31 :   -34.7444796434331
          32 :   -23.7229937532534

     Forces acting on atoms (Ry/au):

     negative rho (up, down):  1.022E-03 0.000E+00
     atom    1 type  1   force =    -0.00055291   -0.00031924    0.00189371
     atom    2 type  1   force =     0.00055297   -0.00031925    0.00189401
     atom    3 type  1   force =     0.00000004    0.00063842    0.00189415
     atom    4 type  1   force =    -0.00000008   -0.00000007    0.00201951
     atom    5 type  1   force =     0.00000022    0.00816463   -0.00476541
     atom    6 type  1   force =     0.00000007    0.00000087    0.00774301
     atom    7 type  1   force =    -0.00706919   -0.00408225   -0.00476577
     atom    8 type  1   force =     0.00707029   -0.00408261   -0.00476706
     atom    9 type  1   force =    -0.00000164   -0.00000061   -0.00073076
     atom   10 type  1   force =     0.00000083    0.00030321   -0.00028247
     atom   11 type  1   force =     0.00026383   -0.00015076   -0.00028535
     atom   12 type  1   force =    -0.00026450   -0.00015176   -0.00028560
     atom   13 type  2   force =     0.00000005   -0.00000058    0.00043803

     Total force =     0.001116     Total SCF correction =     0.000513
     SCF correction compared to forces is large: reduce conv_thr to get better values

     entering subroutine stress ...

     negative rho (up, down):  1.022E-03 0.000E+00
          total   stress  (Ry/bohr**3)                   (kbar)     P=  -22.60
  -0.00018153  -0.00000000  -0.00000000        -26.70     -0.00     -0.00
  -0.00000000  -0.00018154  -0.00000000         -0.00    -26.70     -0.00
  -0.00000000  -0.00000000  -0.00009781         -0.00     -0.00    -14.39

     bfgs converged in   9 scf cycles and   8 bfgs steps
     (criteria: energy <  1.0E+00, force <  1.9E-03)

     End of BFGS Geometry Optimization

     Final energy   =   -4883.6398592498 Ry
Begin final coordinates

ATOMIC_POSITIONS (crystal)
Cu1      0.166666667   0.166666667   0.412653782    0   0   0
Cu1      0.666666667   0.166666667   0.412653782    0   0   0
Cu1      0.166666667   0.666666667   0.412653782    0   0   0
Cu1      0.666666667   0.666666667   0.412653782    0   0   0
Cu1      0.833333333   0.333333333   0.500000000    0   0   0
Cu1      0.333333333   0.333333333   0.500000000    0   0   0
Cu1      0.833333333   0.833333333   0.500000000    0   0   0
Cu1      0.333333333   0.833333333   0.500000000    0   0   0
Cu1      0.000002145   0.000001682   0.581058724
Cu1      0.500346104  -0.000689049   0.589334533
Cu1     -0.000689264   0.500345826   0.589335974
Cu1      0.500347864   0.500346399   0.589336046
S1       0.000002757  -0.000000602   0.667110950
End final coordinates

     Writing output data file calc.save

     General routines

     Parallel routines

   This run was terminated on:  13:20: 2   2May2018

   JOB DONE.
Job  /afs/slac/g/suncat/bin/suncat-tsmpirun -x LD_LIBRARY_PATH -wdir /scratch/qe622223_aRkHY pw.x -npool 4 -in pw.inp

TID   HOST_NAME   COMMAND_LINE            STATUS            TERMINATION_TIME
00000 suncat0028 pw.x -npool 4 -i  Done                     05/02/2018 13:20:02
00001 suncat0028 pw.x -npool 4 -i  Done                     05/02/2018 13:20:02
00002 suncat0028 pw.x -npool 4 -i  Done                     05/02/2018 13:20:02
00003 suncat0028 pw.x -npool 4 -i  Done                     05/02/2018 13:20:02
00004 suncat0028 pw.x -npool 4 -i  Done                     05/02/2018 13:20:02
00005 suncat0028 pw.x -npool 4 -i  Done                     05/02/2018 13:20:02
00006 suncat0028 pw.x -npool 4 -i  Done                     05/02/2018 13:20:02
00007 suncat0028 pw.x -npool 4 -i  Done                     05/02/2018 13:20:02
00008 suncat0016 pw.x -npool 4 -i  Done                     05/02/2018 13:20:02
00009 suncat0016 pw.x -npool 4 -i  Done                     05/02/2018 13:20:02
00010 suncat0016 pw.x -npool 4 -i  Done                     05/02/2018 13:20:02
00011 suncat0016 pw.x -npool 4 -i  Done                     05/02/2018 13:20:02
00012 suncat0016 pw.x -npool 4 -i  Done                     05/02/2018 13:20:02
00013 suncat0016 pw.x -npool 4 -i  Done                     05/02/2018 13:20:02
00014 suncat0016 pw.x -npool 4 -i  Done                     05/02/2018 13:20:02
00015 suncat0016 pw.x -npool 4 -i  Done                     05/02/2018 13:20:02
00016 suncat0233 pw.x -npool 4 -i  Done                     05/02/2018 13:20:02
00017 suncat0233 pw.x -npool 4 -i  Done                     05/02/2018 13:20:02
00018 suncat0233 pw.x -npool 4 -i  Done                     05/02/2018 13:20:02
00019 suncat0233 pw.x -npool 4 -i  Done                     05/02/2018 13:20:02
00020 suncat0233 pw.x -npool 4 -i  Done                     05/02/2018 13:20:02
00021 suncat0233 pw.x -npool 4 -i  Done                     05/02/2018 13:20:02
00022 suncat0233 pw.x -npool 4 -i  Done                     05/02/2018 13:20:02
00023 suncat0233 pw.x -npool 4 -i  Done                     05/02/2018 13:20:02
00024 suncat0223 pw.x -npool 4 -i  Done                     05/02/2018 13:20:02
00025 suncat0223 pw.x -npool 4 -i  Done                     05/02/2018 13:20:02
00026 suncat0223 pw.x -npool 4 -i  Done                     05/02/2018 13:20:02
00027 suncat0223 pw.x -npool 4 -i  Done                     05/02/2018 13:20:02
00028 suncat0223 pw.x -npool 4 -i  Done                     05/02/2018 13:20:02
00029 suncat0223 pw.x -npool 4 -i  Done                     05/02/2018 13:20:02
00030 suncat0223 pw.x -npool 4 -i  Done                     05/02/2018 13:20:02
00031 suncat0223 pw.x -npool 4 -i  Done                     05/02/2018 13:20:02