     Program PWSCF v.5.1rc2 (svn rev. 11289) starts on  2May2018 at 23:21:30

     Current dimensions of program PWSCF are:
     Max number of different atomic species (ntypx) = 10
     Max number of k-points (npk) =  40000
     Max angular momentum in pseudopotentials (lmaxx) =  3
     Presently stress not available with electric field

     IMPORTANT: XC functional enforced from input :
     Exchange-correlation      = BEEF-VDW ( 1  4 27 13 2)
     Any further DFT definition will be discarded
     Please, verify this is what you really want

     Subspace diagonalization in iterative solution of the eigenvalue problem:
     a serial algorithm will be used

     bravais-lattice index     =            0
     lattice parameter (alat)  =       1.8897  a.u.
     unit-cell volume          =    7725.1200 (a.u.)^3
     number of atoms/cell      =           13
     number of atomic types    =            2
     number of electrons       =       136.00
     number of Kohn-Sham states=           78
     kinetic-energy cutoff     =      36.7493  Ry
     charge density cutoff     =     367.4932  Ry
     convergence threshold     =      1.0E-05
     mixing beta               =       0.3000
     number of iterations used =           10  plain     mixing
     Exchange-correlation      = BEEF-VDW ( 1  4 27 13 2)
     nstep                     =           50

     celldm(1)=   1.889726  celldm(2)=   0.000000  celldm(3)=   0.000000
     celldm(4)=   0.000000  celldm(5)=   0.000000  celldm(6)=   0.000000

     crystal axes: (cart. coord. in units of alat)
               a(1) = (   7.152277   0.000000   0.000000 )
               a(2) = (   3.576139   6.194054   0.000000 )
               a(3) = (   0.000000   0.000000  25.839810 )

     reciprocal axes: (cart. coord. in units 2 pi/alat)
               b(1) = (  0.139816 -0.080723  0.000000 )
               b(2) = (  0.000000  0.161445  0.000000 )
               b(3) = (  0.000000  0.000000  0.038700 )

     PseudoPot. # 1 for Y  read from file:
     /u/if/mamunm/psp/gbrv1.5pbe/Y.UPF
     MD5 check sum: d034151ed7554c50b6e82763ed42c788
     Pseudo is Ultrasoft + core correction, Zval = 11.0
     Generated by new atomic code, or converted to UPF format
     Using radial grid of  885 points,  6 beta functions with:
                l(1) =   0
                l(2) =   0
                l(3) =   1
                l(4) =   1
                l(5) =   2
                l(6) =   2
     Q(r) pseudized with  8 coefficients,  rinner =    1.200   1.200   1.200
                                                       1.200   1.200

     PseudoPot. # 2 for C  read from file:
     /u/if/mamunm/psp/gbrv1.5pbe/C.UPF
     MD5 check sum: d1aef80898a10debaa0f26306b886e00
     Pseudo is Ultrasoft + core correction, Zval =  4.0
     Generated by new atomic code, or converted to UPF format
     Using radial grid of  721 points,  4 beta functions with:
                l(1) =   0
                l(2) =   0
                l(3) =   1
                l(4) =   1
     Q(r) pseudized with  8 coefficients,  rinner =    1.100   1.100   1.100

     vdW kernel table read from file vdW_kernel_table
     MD5 check sum: 095c7af220d748ca6e76c0b4c6cfb241

     atomic species   valence    mass     pseudopotential
        Y1            11.00    88.90584     Y ( 1.00)
        C1             4.00    12.01100     C ( 1.00)

     No symmetry found

   Cartesian axes

     site n.     atom                  positions (alat units)
         1           Y1  tau(   1) = (   1.7880693   1.0323423  10.0000000  )
         2           Y1  tau(   2) = (   5.3642080   1.0323423  10.0000000  )
         3           Y1  tau(   3) = (   3.5761386   4.1293692  10.0000000  )
         4           Y1  tau(   4) = (   7.1522773   4.1293692  10.0000000  )
         5           Y1  tau(   5) = (   7.1522773   2.0646846  12.9199050  )
         6           Y1  tau(   6) = (   3.5761386   2.0646846  12.9199050  )
         7           Y1  tau(   7) = (   8.9403466   5.1617115  12.9199050  )
         8           Y1  tau(   8) = (   5.3642080   5.1617115  12.9199050  )
         9           Y1  tau(   9) = (   0.0000000   0.0000000  15.8398100  )
        10           Y1  tau(  10) = (   3.5761386   0.0000000  15.8398100  )
        11           Y1  tau(  11) = (   1.7880693   3.0970269  15.8398100  )
        12           Y1  tau(  12) = (   5.3642080   3.0970269  15.8398100  )
        13           C1  tau(  13) = (   3.5761386   2.0646846  17.5688100  )

     number of k points=    20  Fermi-Dirac smearing, width (Ry)=  0.0110
                       cart. coord. in units 2pi/alat
        k(    1) = (   0.0000000   0.0000000   0.0000000), wk =   0.0555556
        k(    2) = (   0.0000000   0.0269075   0.0000000), wk =   0.1111111
        k(    3) = (   0.0000000   0.0538151   0.0000000), wk =   0.1111111
        k(    4) = (   0.0000000  -0.0807226   0.0000000), wk =   0.0555556
        k(    5) = (   0.0233026  -0.0134538   0.0000000), wk =   0.1111111
        k(    6) = (   0.0233026   0.0134538   0.0000000), wk =   0.1111111
        k(    7) = (   0.0233026   0.0403613   0.0000000), wk =   0.1111111
        k(    8) = (   0.0233026  -0.0941763   0.0000000), wk =   0.1111111
        k(    9) = (   0.0233026  -0.0672688   0.0000000), wk =   0.1111111
        k(   10) = (   0.0233026  -0.0403613   0.0000000), wk =   0.1111111
        k(   11) = (   0.0466052  -0.0269075   0.0000000), wk =   0.1111111
        k(   12) = (   0.0466052   0.0000000   0.0000000), wk =   0.1111111
        k(   13) = (   0.0466052   0.0269075   0.0000000), wk =   0.1111111
        k(   14) = (   0.0466052  -0.1076301   0.0000000), wk =   0.1111111
        k(   15) = (   0.0466052  -0.0807226   0.0000000), wk =   0.1111111
        k(   16) = (   0.0466052  -0.0538151   0.0000000), wk =   0.1111111
        k(   17) = (  -0.0699078   0.0403613   0.0000000), wk =   0.0555556
        k(   18) = (  -0.0699078   0.0672688   0.0000000), wk =   0.1111111
        k(   19) = (  -0.0699078   0.0941763   0.0000000), wk =   0.1111111
        k(   20) = (  -0.0699078  -0.0403613   0.0000000), wk =   0.0555556

     Largest allocated arrays     est. size (Mb)     dimensions
     Largest temporary arrays     est. size (Mb)     dimensions

     Initial potential from superposition of free atoms
     Check: negative starting charge=   -0.000570

     starting charge  135.94633, renormalised to  136.00000

     negative rho (up, down):  5.701E-04 0.000E+00

     *
     * You are using vdW-DF for exchange-correlation in this calculation.
     * Please cite the following three references that made this development
     * possible:
     *
     *   M. Dion, H. Rydberg, E. Schroder, D. C. Langreth, and
     *   B. I. Lundqvist, Phys. Rev. Lett. 92, 246401 (2004).
     *
     *   T. Thonhauser, V. R. Cooper, S. Li, A. Puzder, P. Hyldgaard, and
     *   D. C. Langreth, Phys. Rev. B 76, 125112 (2007).
     *
     *   G. Roman-Perez and J. M. Soler, Phys. Rev. Lett. 103, 096102 (2009).
     *
     *
     * If you are using vdW-DF2, please also cite:
     *
     *   K. Lee, E. D. Murray, L. Kong, B. I. Lundqvist, and
     *   D. C. Langreth, Phys. Rev. B 82, 081101(R) (2010).
     *
     *
     * If you are calculating the stress with vdW-DF, please also cite:
     *
     *   R. Sabatini, E. Kucukbenli, B. Kolb, T. Thonhauser, and
     *   S. de Gironcoli, J. Phys.: Condens. Matter 24, 424209 (2012).
     *

     Carrying out vdW-DF run using the following parameters:

     Nqs =      20    Nr_points =    1024   r_max =   100.000
     q_mesh =
               0.00001000     0.04494208     0.09755937     0.15916263
               0.23128650     0.31572767     0.41458969     0.53033537
               0.66584808     0.82450364     1.01025438     1.22772762
               1.48234092     1.78043706     2.12944203     2.53805004
               3.01644009     3.57652955     4.23227104     5.00000000

     Gradients computed in reciprocal space

     Adding external electric field

     Computed dipole along edir(3) :
        Dipole               -0.0135 Ry au,         -0.0344 Debye
        Dipole field         -0.0000 Ry au

        Potential amp.        0.0021 Ry
        Total length         47.6094 bohr

     Starting wfc are  160 randomized atomic wfcs

     Self-consistent Calculation

     iteration #  1     ecut=    36.75 Ry     beta=0.30
     Davidson diagonalization with overlap
     ethr =  1.00E-02,  avg # of iterations =  2.0

[...]

     total energy              =   -1132.81465050 Ry
     Harris-Foulkes estimate   =   -1136.06756739 Ry
     estimated scf accuracy    <       7.10065628 Ry

[...]

     End of self-consistent calculation

          k = 0.0000 0.0000 0.0000 ( 28997 PWs)   bands (ev):

   -42.8832 -42.7593 -42.7212 -42.7127 -42.7126 -42.4556 -42.4237 -42.4236
   -42.2286 -42.1880 -42.1675 -42.1675 -22.9199 -22.8677 -22.8677 -22.8593
   -22.8476 -22.8476 -22.7930 -22.7262 -22.7177 -22.7176 -22.6112 -22.5397
   -22.5397 -22.5373 -22.4751 -22.4751 -22.4398 -22.4395 -22.4395 -22.3861
   -22.3861 -22.3142 -22.3115 -22.3115 -22.2957 -22.1403 -22.1381 -22.1380
   -22.0989 -22.0841 -22.0840 -22.0366 -22.0366 -22.0280 -21.9376 -21.9376
    -7.4239  -3.6406  -2.6316  -1.6324  -1.0877  -1.0877  -1.0243  -0.9039
    -0.9039  -0.8815  -0.6855  -0.6855  -0.6430  -0.1010  -0.1003  -0.1002
     0.1710   0.1710   0.4069   0.6383   0.6383   0.6482   0.7772   1.1984
     1.2886   1.2886   1.2945   1.7429   1.7429   1.7642

[...]

          k =-0.0699 0.0404 0.0000 ( 29048 PWs)   bands (ev):

[...]

     the Fermi energy is     0.5873 ev

!    total energy              =   -1135.64965092 Ry
     Harris-Foulkes estimate   =   -1135.64966980 Ry
     estimated scf accuracy    <       0.00000310 Ry

     The total energy is the sum of the following terms:

     one-electron contribution =   -5492.75184514 Ry
     hartree contribution      =    2738.30234668 Ry
     xc contribution           =    -342.20523008 Ry
     ewald contribution        =    1961.13598728 Ry
     electric field correction =       0.00058633 Ry
     smearing contrib. (-TS)   =      -0.13149599 Ry

     convergence has been achieved in  18 iterations

 BEEF-vdW xc energy contributions
           1 :   -298.423461800186
           2 :    268.000008038479
           3 :   -215.608807988465
           4 :    154.113673115749
           5 :   -95.4975297946153
           6 :    47.2946158213234
           7 :   -12.0526938515417
           8 :   -10.9066431798931
           9 :    23.2373932119082
          10 :   -26.3360280293967
          11 :    21.4834746167713
          12 :   -10.6841271161273
          13 :   -2.83264324177645
          14 :    15.0755483179355
          15 :   -22.5611280216378
          16 :    23.5996899722743
          17 :   -18.7741879961296
          18 :    10.3484166393148
          19 :   -1.06253577549325
          20 :   -6.91580395476757
          21 :    12.3898476314398
          22 :   -14.9452214480316
          23 :    14.5984778640262
          24 :   -11.6514248149626
          25 :    6.78428387152263
          26 :   -1.14103767798605
          27 :   -3.85118429890139
          28 :    6.94704228047033
          29 :   -7.58212700049882
          30 :    6.07865256881252
          31 :   -28.6408833450768
          32 :   -19.6013916885030

     Forces acting on atoms (Ry/au):

     negative rho (up, down):  1.162E-04 0.000E+00
     atom    1 type  1   force =     0.00006452    0.00004133    0.00518031
     atom    2 type  1   force =    -0.00005993    0.00005031    0.00518250
     atom    3 type  1   force =     0.00000745   -0.00008293    0.00519086
     atom    4 type  1   force =    -0.00000543   -0.00000741    0.00508387
     atom    5 type  1   force =    -0.00002669   -0.00337197    0.00011806
     atom    6 type  1   force =     0.00002625    0.00003111   -0.00968655
     atom    7 type  1   force =     0.00293408    0.00168153    0.00010978
     atom    8 type  1   force =    -0.00293928    0.00165854    0.00011891
     atom    9 type  1   force =     0.00000812   -0.00000322    0.00315660
     atom   10 type  1   force =    -0.00000326    0.05049284    0.03790164
     atom   11 type  1   force =     0.04372812   -0.02525339    0.03788894
     atom   12 type  1   force =    -0.04372989   -0.02523401    0.03787947
     atom   13 type  2   force =    -0.00000406   -0.00000273   -0.12812437

     Total force =     0.168467     Total SCF correction =     0.002961

     entering subroutine stress ...

     negative rho (up, down):  1.162E-04 0.000E+00
          total   stress  (Ry/bohr**3)                   (kbar)     P=   -6.77
  -0.00003018  -0.00000000  -0.00000000         -4.44     -0.00     -0.00
  -0.00000000  -0.00003018   0.00000000         -0.00     -4.44      0.00
  -0.00000000   0.00000000  -0.00007770         -0.00      0.00    -11.43

     BFGS Geometry Optimization

     number of scf cycles    =   1
     number of bfgs steps    =   0

     energy   new            =   -1135.6496509191 Ry

     new trust radius        =       0.1281243739 bohr
     new conv_thr            =       0.0000099958 Ry

ATOMIC_POSITIONS (crystal)
Y1       0.166666667   0.166666667   0.386999750    0   0   0
Y1       0.666666667   0.166666667   0.386999750    0   0   0
Y1       0.166666667   0.666666667   0.386999750    0   0   0
Y1       0.666666667   0.666666667   0.386999750    0   0   0
Y1       0.833333333   0.333333333   0.500000000    0   0   0
Y1       0.333333333   0.333333333   0.500000000    0   0   0
Y1       0.833333333   0.833333333   0.500000000    0   0   0
Y1       0.333333333   0.833333333   0.500000000    0   0   0
Y1       0.000000738  -0.000000275   0.613064894
Y1       0.497842879   0.004313760   0.613776443
Y1       0.004314061   0.497842524   0.613776183
Y1       0.497842456   0.497844180   0.613775989
C1       0.333333150   0.333333100   0.677288629

     Writing output data file calc.save
     Check: negative starting charge=   -0.000570
     NEW-OLD atomic charge density approx. for the potential
     Check: negative starting charge=   -0.000578

[...]

     iteration #  6     ecut=    36.75 Ry     beta=0.30
     Davidson diagonalization with overlap
     c_bands:  1 eigenvalues not converged
     ethr =  3.89E-06,  avg # of iterations = 10.6

[...]

     energy   old            =   -1135.6496509191 Ry
     energy   new            =   -1135.6775832181 Ry

     CASE: energy  _new < energy  _old

     WARNING: bfgs curvature condition failed, Theta= 0.831
     new trust radius        =       0.1409368113 bohr
     new conv_thr            =       0.0000001000 Ry

[...]

     iteration #  1     ecut=    36.75 Ry     beta=0.30
     Davidson diagonalization with overlap
     c_bands:  1 eigenvalues not converged
     ethr =  1.00E-06,  avg # of iterations = 15.2

[...]

     WARNING: bfgs curvature condition failed, Theta= 0.958
     new trust radius        =       0.1189218446 bohr
     new conv_thr            =       0.0000001000 Ry

[...]

     Total force =     0.006108     Total SCF correction =     0.000871
     SCF correction compared to forces is large: reduce conv_thr to get better values

[...]

     Total force =     0.004948     Total SCF correction =     0.000525
     SCF correction compared to forces is large: reduce conv_thr to get better values

[...]

     number of scf cycles    =  19
     number of bfgs steps    =  18

     energy   old            =   -1135.7972885616 Ry
     energy   new            =   -1135.7974481914 Ry

     CASE: energy  _new < energy  _old

     new trust radius        =       0.0735367582 bohr
     new conv_thr            =       0.0000001000 Ry

ATOMIC_POSITIONS (crystal)
Y1       0.166666667   0.166666667   0.386999750    0   0   0
Y1       0.666666667   0.166666667   0.386999750    0   0   0
Y1       0.166666667   0.666666667   0.386999750    0   0   0
Y1       0.666666667   0.666666667   0.386999750    0   0   0
Y1       0.833333333   0.333333333   0.500000000    0   0   0
Y1       0.333333333   0.333333333   0.500000000    0   0   0
Y1       0.833333333   0.833333333   0.500000000    0   0   0
Y1       0.333333333   0.833333333   0.500000000    0   0   0
Y1      -0.000000346   0.000000662   0.608711945
Y1       0.500705353  -0.001413901   0.613305399
Y1      -0.001414282   0.500707125   0.613305489
Y1       0.500707612   0.500705621   0.613305141
C1       0.333333236   0.333333916   0.638979424

     Writing output data file calc.save
     Check: negative starting charge=   -0.000619
     NEW-OLD atomic charge density approx. for the potential
     Check: negative starting charge=   -0.000621

[...]

     Self-consistent Calculation

[...]

     total energy              =   -1135.79760475 Ry
     Harris-Foulkes estimate   =   -1135.79760491 Ry
     estimated scf accuracy    <       0.00000099 Ry

     iteration # 11     ecut=    36.75 Ry     beta=0.30
     Davidson diagonalization with overlap
     ethr =  7.28E-10,  avg # of iterations =  3.5

[...]

     negative rho (up, down):  1.214E-04 0.000E+00

     Adding external electric field

     Computed dipole along edir(3) :
        Dipole               -0.1355 Ry au,         -0.3443 Debye
        Dipole field         -0.0002 Ry au

        Potential amp.        0.0210 Ry
        Total length         47.6094 bohr

     End of self-consistent calculation

[...]

          k = 0.0466-0.0538 0.0000 ( 29098 PWs)   bands (ev):

[...]

          k =-0.0699-0.0404 0.0000 ( 29048 PWs)   bands (ev):

   -42.4632 -42.4120 -42.3898 -42.3756 -42.3684 -41.9546 -41.8153 -41.8037
   -41.7936 -41.6646 -41.6527 -41.6410 -22.5198 -22.4527 -22.4367 -22.4285
   -22.4098 -22.3936 -22.3808 -22.3710 -22.3645 -22.3264 -22.3100 -22.2829
   -22.2767 -22.1563 -22.1405 -21.9874 -21.9708 -21.9216 -21.8875 -21.8368
   -21.8147 -21.7847 -21.7807 -21.7541 -21.7471 -21.7469 -21.6988 -21.6985
   -21.6627 -21.6591 -21.6445 -21.6393 -21.6110 -21.5936 -21.5356 -21.4094
    -7.2227  -2.2042  -2.0585  -1.4865  -1.1033  -0.7277  -0.6134  -0.5101
    -0.3382  -0.2081  -0.1576   0.1461   0.1844   0.2945   0.6527   0.6654
     0.7214   0.7818   0.8468   0.8527   0.9611   0.9778   1.0612   1.0813
     1.1986   1.3062   1.3548   1.4209   1.4950   1.5579

     the Fermi energy is     0.9243 ev

!    total energy              =   -1135.79760487 Ry
     Harris-Foulkes estimate   =   -1135.79760429 Ry
     estimated scf accuracy    <       0.00000004 Ry

     The total energy is the sum of the following terms:

     one-electron contribution =   -5613.69160868 Ry
     hartree contribution      =    2800.85833666 Ry
     xc contribution           =    -342.73992122 Ry
     ewald contribution        =    2019.90127669 Ry
     electric field correction =       0.00002985 Ry
     smearing contrib. (-TS)   =      -0.12571817 Ry

     convergence has been achieved in  11 iterations

 BEEF-vdW xc energy contributions
           1 :   -298.948842041707
           2 :    268.623420662489
           3 :   -216.317089005283
           4 :    154.777439549966
           5 :   -95.9430127052387
           6 :    47.3888057798873
           7 :   -11.7703667475037
           8 :   -11.4629276138620
           9 :    23.8824332272253
          10 :   -26.8941947859561
          11 :    21.8733817007368
          12 :   -10.9398059956289
          13 :   -2.61575042918702
          14 :    14.8252934681515
          15 :   -22.2804357158249
          16 :    23.3523965687712
          17 :   -18.6249907754959
          18 :    10.3090619114223
          19 :   -1.08343256848923
          20 :   -6.90885744738569
          21 :    12.4457957559399
          22 :   -15.0627874214589
          23 :    14.7423345770691
          24 :   -11.7921068141864
          25 :    6.92655532547656
          26 :   -1.31808959213066
          27 :   -3.60958728495535
          28 :    6.64258634784846
          29 :   -7.24838362183243
          30 :    5.75623073805411
          31 :   -28.6782886808713
          32 :   -19.6563296881371

     Forces acting on atoms (Ry/au):

     negative rho (up, down):  1.214E-04 0.000E+00
     atom    1 type  1   force =     0.00023726    0.00013686    0.00534277
     atom    2 type  1   force =    -0.00023699    0.00013660    0.00534296
     atom    3 type  1   force =     0.00000002   -0.00027408    0.00534328
     atom    4 type  1   force =    -0.00000001   -0.00000003    0.00523432
     atom    5 type  1   force =     0.00000039   -0.00408084   -0.00845173
     atom    6 type  1   force =    -0.00000012    0.00000014    0.00366972
     atom    7 type  1   force =     0.00353393    0.00204042   -0.00845125
     atom    8 type  1   force =    -0.00353428    0.00204036   -0.00845177
     atom    9 type  1   force =     0.00000035   -0.00000081    0.00168377
     atom   10 type  1   force =     0.00000118   -0.00029122   -0.00056886
     atom   11 type  1   force =    -0.00025382    0.00014622   -0.00056947
     atom   12 type  1   force =     0.00025422    0.00014892   -0.00056943
     atom   13 type  2   force =    -0.00000212   -0.00000254    0.00044570

     Total force =     0.002065     Total SCF correction =     0.000127

     entering subroutine stress ...

     negative rho (up, down):  1.214E-04 0.000E+00
          total   stress  (Ry/bohr**3)                   (kbar)     P=    2.41
   0.00003260   0.00000000  -0.00000000          4.80      0.00     -0.00
   0.00000000   0.00003260  -0.00000000          0.00      4.80     -0.00
  -0.00000000  -0.00000000  -0.00001615         -0.00     -0.00     -2.38

     bfgs converged in  20 scf cycles and  19 bfgs steps
     (criteria: energy <  1.0E+00, force <  1.9E-03)

     End of BFGS Geometry Optimization

     Final energy   =   -1135.7976048695 Ry
Begin final coordinates

ATOMIC_POSITIONS (crystal)
Y1       0.166666667   0.166666667   0.386999750    0   0   0
Y1       0.666666667   0.166666667   0.386999750    0   0   0
Y1       0.166666667   0.666666667   0.386999750    0   0   0
Y1       0.666666667   0.666666667   0.386999750    0   0   0
Y1       0.833333333   0.333333333   0.500000000    0   0   0
Y1       0.333333333   0.333333333   0.500000000    0   0   0
Y1       0.833333333   0.833333333   0.500000000    0   0   0
Y1       0.333333333   0.833333333   0.500000000    0   0   0
Y1      -0.000000346   0.000000662   0.608711945
Y1       0.500705353  -0.001413901   0.613305399
Y1      -0.001414282   0.500707125   0.613305489
Y1       0.500707612   0.500705621   0.613305141
C1       0.333333236   0.333333916   0.638979424
End final coordinates

     Writing output data file calc.save

     General routines

     Parallel routines

   This run was terminated on:   3: 6:10   3May2018

   JOB DONE.
Job  /afs/slac/g/suncat/bin/suncat-tsmpirun -x LD_LIBRARY_PATH -wdir /scratch/qe543045_ztaOG pw.x -npool 4 -in pw.inp

TID   HOST_NAME   COMMAND_LINE            STATUS            TERMINATION_TIME
00000 suncat0062 pw.x -npool 4 -i  Done                     05/03/2018 03:06:10
00001 suncat0062 pw.x -npool 4 -i  Done                     05/03/2018 03:06:10
00002 suncat0062 pw.x -npool 4 -i  Done                     05/03/2018 03:06:10
00003 suncat0062 pw.x -npool 4 -i  Done                     05/03/2018 03:06:10
00004 suncat0062 pw.x -npool 4 -i  Done                     05/03/2018 03:06:10
00005 suncat0062 pw.x -npool 4 -i  Done                     05/03/2018 03:06:10
00006 suncat0062 pw.x -npool 4 -i  Done                     05/03/2018 03:06:10
00007 suncat0062 pw.x -npool 4 -i  Done                     05/03/2018 03:06:10
00008 suncat0055 pw.x -npool 4 -i  Done                     05/03/2018 03:06:10
00009 suncat0055 pw.x -npool 4 -i  Done                     05/03/2018 03:06:10
00010 suncat0055 pw.x -npool 4 -i  Done                     05/03/2018 03:06:10
00011 suncat0055 pw.x -npool 4 -i  Done                     05/03/2018 03:06:10
00012 suncat0055 pw.x -npool 4 -i  Done                     05/03/2018 03:06:10
00013 suncat0055 pw.x -npool 4 -i  Done                     05/03/2018 03:06:10
00014 suncat0055 pw.x -npool 4 -i  Done                     05/03/2018 03:06:10
00015 suncat0055 pw.x -npool 4 -i  Done                     05/03/2018 03:06:10
00016 suncat0148 pw.x -npool 4 -i  Done                     05/03/2018 03:06:10
00017 suncat0148 pw.x -npool 4 -i  Done                     05/03/2018 03:06:10
00018 suncat0148 pw.x -npool 4 -i  Done                     05/03/2018 03:06:10
00019 suncat0148 pw.x -npool 4 -i  Done                     05/03/2018 03:06:10
00020 suncat0148 pw.x -npool 4 -i  Done                     05/03/2018 03:06:10
00021 suncat0148 pw.x -npool 4 -i  Done                     05/03/2018 03:06:10
00022 suncat0148 pw.x -npool 4 -i  Done                     05/03/2018 03:06:10
00023 suncat0148 pw.x -npool 4 -i  Done                     05/03/2018 03:06:10
00024 suncat0274 pw.x -npool 4 -i  Done                     05/03/2018 03:06:10
00025 suncat0274 pw.x -npool 4 -i  Done                     05/03/2018 03:06:10
00026 suncat0274 pw.x -npool 4 -i  Done                     05/03/2018 03:06:10
00027 suncat0274 pw.x -npool 4 -i  Done                     05/03/2018 03:06:10
00028 suncat0274 pw.x -npool 4 -i  Done                     05/03/2018 03:06:10
00029 suncat0274 pw.x -npool 4 -i  Done                     05/03/2018 03:06:10
00030 suncat0274 pw.x -npool 4 -i  Done                     05/03/2018 03:06:10
00031 suncat0274 pw.x -npool 4 -i  Done                     05/03/2018 03:06:10